[Molden Format]
[Title]
 Molden file created by orca_2mkl for BaseName=test

[Atoms] AU
C    1   6         -2.3139576791        -1.3131739484         0.0000173485 
C    2   6         -2.2942593541         1.3474085677         0.0000368232 
C    3   6         -0.0196850767        -2.6606501686        -0.0000039831 
C    4   6          0.0197736632         2.6607033073         0.0000356760 
C    5   6          2.2943352246        -1.3473489486        -0.0000050775 
C    6   6          2.3140397019         1.3132300320         0.0000137413 
H    7   1         -4.1218817084        -2.3391294710         0.0000196283 
H    8   1         -4.0867390946         2.4001062635         0.0000534863 
H    9   1         -0.0351701166        -4.7393102129        -0.0000221435 
H   10   1          0.0351668040         4.7393651902         0.0000519457 
H   11   1          4.0868148356        -2.4000479868        -0.0000176437 
H   12   1          4.1219407453         2.3392253209         0.0000091713 
[GTO]
  1 0
s   5 1.0 
     1238.4016938000         0.8208956682
      186.2900499200         1.4766449896
       42.2511763460         2.1526124058
       11.6765579320         2.1081722461
        3.5930506482         0.8290999933
s   1 1.0 
        0.4024514736         0.3601183351
s   1 1.0 
        0.1309018267         0.1551027052
p   3 1.0 
        9.4680970621         1.3467645142
        2.0103545142         1.0678070931
        0.5477100471         0.5108735714
p   1 1.0 
        0.1526861379         0.1360471976
d   1 1.0 
        0.8000000000         1.9292013661

  2 0
s   5 1.0 
     1238.4016938000         0.8208956682
      186.2900499200         1.4766449896
       42.2511763460         2.1526124058
       11.6765579320         2.1081722461
        3.5930506482         0.8290999933
s   1 1.0 
        0.4024514736         0.3601183351
s   1 1.0 
        0.1309018267         0.1551027052
p   3 1.0 
        9.4680970621         1.3467645142
        2.0103545142         1.0678070931
        0.5477100471         0.5108735714
p   1 1.0 
        0.1526861379         0.1360471976
d   1 1.0 
        0.8000000000         1.9292013661

  3 0
s   5 1.0 
     1238.4016938000         0.8208956682
      186.2900499200         1.4766449896
       42.2511763460         2.1526124058
       11.6765579320         2.1081722461
        3.5930506482         0.8290999933
s   1 1.0 
        0.4024514736         0.3601183351
s   1 1.0 
        0.1309018267         0.1551027052
p   3 1.0 
        9.4680970621         1.3467645142
        2.0103545142         1.0678070931
        0.5477100471         0.5108735714
p   1 1.0 
        0.1526861379         0.1360471976
d   1 1.0 
        0.8000000000         1.9292013661

  4 0
s   5 1.0 
     1238.4016938000         0.8208956682
      186.2900499200         1.4766449896
       42.2511763460         2.1526124058
       11.6765579320         2.1081722461
        3.5930506482         0.8290999933
s   1 1.0 
        0.4024514736         0.3601183351
s   1 1.0 
        0.1309018267         0.1551027052
p   3 1.0 
        9.4680970621         1.3467645142
        2.0103545142         1.0678070931
        0.5477100471         0.5108735714
p   1 1.0 
        0.1526861379         0.1360471976
d   1 1.0 
        0.8000000000         1.9292013661

  5 0
s   5 1.0 
     1238.4016938000         0.8208956682
      186.2900499200         1.4766449896
       42.2511763460         2.1526124058
       11.6765579320         2.1081722461
        3.5930506482         0.8290999933
s   1 1.0 
        0.4024514736         0.3601183351
s   1 1.0 
        0.1309018267         0.1551027052
p   3 1.0 
        9.4680970621         1.3467645142
        2.0103545142         1.0678070931
        0.5477100471         0.5108735714
p   1 1.0 
        0.1526861379         0.1360471976
d   1 1.0 
        0.8000000000         1.9292013661

  6 0
s   5 1.0 
     1238.4016938000         0.8208956682
      186.2900499200         1.4766449896
       42.2511763460         2.1526124058
       11.6765579320         2.1081722461
        3.5930506482         0.8290999933
s   1 1.0 
        0.4024514736         0.3601183351
s   1 1.0 
        0.1309018267         0.1551027052
p   3 1.0 
        9.4680970621         1.3467645142
        2.0103545142         1.0678070931
        0.5477100471         0.5108735714
p   1 1.0 
        0.1526861379         0.1360471976
d   1 1.0 
        0.8000000000         1.9292013661

  7 0
s   3 1.0 
       13.0107010000         0.1634903809
        1.9622572000         0.2773515510
        0.4445379600         0.3157501452
s   1 1.0 
        0.1219496200         0.1470772262
p   1 1.0 
        0.8000000000         1.0784563492

  8 0
s   3 1.0 
       13.0107010000         0.1634903809
        1.9622572000         0.2773515510
        0.4445379600         0.3157501452
s   1 1.0 
        0.1219496200         0.1470772262
p   1 1.0 
        0.8000000000         1.0784563492

  9 0
s   3 1.0 
       13.0107010000         0.1634903809
        1.9622572000         0.2773515510
        0.4445379600         0.3157501452
s   1 1.0 
        0.1219496200         0.1470772262
p   1 1.0 
        0.8000000000         1.0784563492

 10 0
s   3 1.0 
       13.0107010000         0.1634903809
        1.9622572000         0.2773515510
        0.4445379600         0.3157501452
s   1 1.0 
        0.1219496200         0.1470772262
p   1 1.0 
        0.8000000000         1.0784563492

 11 0
s   3 1.0 
       13.0107010000         0.1634903809
        1.9622572000         0.2773515510
        0.4445379600         0.3157501452
s   1 1.0 
        0.1219496200         0.1470772262
p   1 1.0 
        0.8000000000         1.0784563492

 12 0
s   3 1.0 
       13.0107010000         0.1634903809
        1.9622572000         0.2773515510
        0.4445379600         0.3157501452
s   1 1.0 
        0.1219496200         0.1470772262
p   1 1.0 
        0.8000000000         1.0784563492

[5D]
[7F]
[9G]
[MO]
 Sym=     1a
 Ene= -9.92775326678693E+00
 Spin= Alpha
 Occup= 2.000000
  1       0.381019969073
  2       0.015501229842
  3      -0.006165766439
  4      -0.001068005864
  5      -0.000515258733
  6       0.000000001836
  7       0.000204282597
  8       0.000520354813
  9       0.000000005221
 10      -0.000154900277
 11       0.000000001899
 12      -0.000000004929
 13       0.000399474378
 14       0.000764182403
 15       0.371477402052
 16       0.015039234090
 17      -0.006085295748
 18      -0.001024286740
 19       0.000573811383
 20       0.000000009384
 21       0.000373082747
 22      -0.000340658055
 23      -0.000000007610
 24      -0.000144013431
 25      -0.000000009000
 26       0.000000002581
 27       0.000401213202
 28      -0.000749926788
 29       0.411975255314
 30       0.016984177626
 31      -0.006358067916
 32      -0.000117381701
 33      -0.001217464206
 34      -0.000000009826
 35      -0.000449342557
 36       0.000233863571
 37       0.000000001943
 38      -0.000184077452
 39       0.000000002409
 40       0.000000011225
 41      -0.000898283970
 42      -0.000053229238
 43       0.393267003441
 44       0.016090246658
 45      -0.006255359626
 46      -0.000095184761
 47       0.001197249325
 48       0.000000009656
 49      -0.000458304750
 50      -0.000350180421
 51       0.000000003248
 52      -0.000167232966
 53       0.000000003505
 54       0.000000008635
 55      -0.000874044848
 56       0.000077192354
 57       0.435919016976
 58       0.018150763435
 59      -0.006645092423
 60       0.001056201388
 61      -0.000649336610
 62      -0.000000007981
 63      -0.000114174658
 64      -0.000053845176
 65       0.000000002437
 66      -0.000214859881
 67      -0.000000007464
 68       0.000000001848
 69       0.000462257754
 70      -0.000797470858
 71       0.424648119396
 72       0.017595545968
 73      -0.006467173418
 74       0.001029125957
 75       0.000681095121
 76      -0.000000001538
 77      -0.000299307096
 78       0.000228008383
 79       0.000000000183
 80      -0.000198025634
 81      -0.000000000457
 82      -0.000000006026
 83       0.000511673434
 84       0.000755774952
 85      -0.001718768482
 86       0.002182018001
 87      -0.000894875496
 88      -0.000546636197
 89       0.000000000631
 90      -0.001653935418
 91       0.002156125863
 92      -0.000874094145
 93       0.000525062747
 94       0.000000008621
 95      -0.001933335276
 96       0.002254288007
 97       0.000035944775
 98      -0.001138914157
 99      -0.000000010169
100      -0.001803310786
101       0.002212135345
102       0.000052060746
103       0.001083817053
104       0.000000007853
105      -0.002094696531
106       0.002326109666
107       0.001049391900
108      -0.000604358509
109      -0.000000007231
110      -0.002019820926
111       0.002287766939
112       0.001039854780
113       0.000550676728
114      -0.000000002733
 Sym=     1a
 Ene= -9.92770497813370E+00
 Spin= Alpha
 Occup= 2.000000
  1       0.191350587041
  2       0.009085672217
  3      -0.001827551895
  4       0.000695570024
  5      -0.001706731733
  6      -0.000000015572
  7       0.002951325932
  8      -0.007458427809
  9      -0.000000071523
 10      -0.000195832860
 11      -0.000000010177
 12      -0.000000003682
 13       0.001088509826
 14      -0.000377573478
 15       0.569590216235
 16       0.027254485592
 17      -0.004390348318
 18      -0.000780783688
 19      -0.000044552152
 20       0.000000003280
 21      -0.004014528263
 22       0.000212228721
 23       0.000000023317
 24      -0.000572414939
 25      -0.000000010691
 26       0.000000010196
 27       0.000093530948
 28      -0.000716646393
 29      -0.363204145155
 30      -0.017620712302
 31       0.002542697692
 32       0.001448617720
 33       0.000337984647
 34      -0.000000003417
 35       0.006054810591
 36       0.002482296929
 37      -0.000000008614
 38       0.000386056181
 39       0.000000007911
 40      -0.000000014546
 41       0.000404593220
 42       0.000883176034
 43       0.412019468207
 44       0.019717150349
 45      -0.003593567105
 46       0.001398214202
 47       0.000459082308
 48      -0.000000002848
 49       0.006110792346
 50       0.002518579347
 51      -0.000000014060
 52      -0.000429037576
 53      -0.000000008324
 54       0.000000014233
 55      -0.000495065389
 56      -0.000854229374
 57      -0.541726257182
 58      -0.026286258881
 59       0.004506107621
 60      -0.000665542918
 61      -0.000111168193
 62       0.000000000071
 63      -0.004152786926
 64       0.000292182187
 65       0.000000020702
 66       0.000602120479
 67       0.000000006077
 68      -0.000000007851
 69      -0.000048524811
 70       0.000634919457
 71      -0.142906754179
 72      -0.007009317965
 73       0.000797549138
 74       0.000826530186
 75      -0.001692469125
 76      -0.000000016174
 77       0.002952264375
 78      -0.007392688363
 79      -0.000000067349
 80       0.000154132692
 81       0.000000011418
 82       0.000000003436
 83      -0.001066096504
 84       0.000470069591
 85      -0.001263912826
 86       0.000564173765
 87      -0.000869851167
 88       0.000391269171
 89       0.000000007759
 90      -0.003870633536
 91       0.001485423982
 92      -0.001353086186
 93       0.001003975579
 94       0.000000014097
 95       0.002544450433
 96      -0.000844739109
 97      -0.000585913556
 98       0.001079240879
 99       0.000000012735
100      -0.002778722098
101       0.001127858263
102      -0.000580108379
103       0.001220206387
104       0.000000012793
105       0.003756478054
106      -0.001354501801
107      -0.001297213094
108       0.000971073810
109       0.000000009306
110       0.001031753307
111      -0.000283819163
112      -0.000750820844
113       0.000464460520
114       0.000000007886
 Sym=     1a
 Ene= -9.92770489901569E+00
 Spin= Alpha
 Occup= 2.000000
  1      -0.549866583064
  2      -0.026387871125
  3       0.004214123386
  4       0.000816975939
  5      -0.000210015494
  6      -0.000000006375
  7       0.004266081592
  8      -0.000376259961
  9      -0.000000022834
 10       0.000561238166
 11       0.000000000581
 12      -0.000000002822
 13      -0.000016973177
 14      -0.000730490320
 15      -0.136730395904
 16      -0.006516395628
 17       0.001172736327
 18      -0.000805263757
 19      -0.001693484423
 20      -0.000000008642
 21      -0.003394704791
 22      -0.007410180616
 23      -0.000000039923
 24       0.000138370738
 25       0.000000002950
 26       0.000000007911
 27      -0.001086989825
 28      -0.000417982825
 29      -0.433430729082
 30      -0.020838721349
 31       0.003782659694
 32      -0.001304494280
 33       0.000476799914
 34       0.000000011413
 35      -0.005626838606
 36       0.002829546202
 37       0.000000047202
 38       0.000463799178
 39      -0.000000004772
 40      -0.000000008272
 41       0.000480076593
 42      -0.000814187501
 43       0.403361794009
 44       0.019474421953
 45      -0.002907112996
 46      -0.001328778179
 47       0.000423113809
 48       0.000000010097
 49      -0.005601871537
 50       0.002749258519
 51       0.000000048600
 52      -0.000419998523
 53       0.000000005190
 54       0.000000005403
 55      -0.000437117247
 56       0.000826329275
 57       0.117014313524
 58       0.005709616850
 59      -0.000873423760
 60      -0.000882144846
 61      -0.001705960390
 62      -0.000000007745
 63      -0.003352899556
 64      -0.007371882822
 65      -0.000000036591
 66      -0.000130487599
 67      -0.000000001854
 68      -0.000000008633
 69       0.001089031932
 70       0.000469428027
 71       0.539730220085
 72       0.026096909127
 73      -0.004447888942
 74       0.000747157309
 75      -0.000219968887
 76      -0.000000007323
 77       0.004372325145
 78      -0.000347841828
 79      -0.000000024481
 80      -0.000586596778
 81      -0.000000003081
 82       0.000000001964
 83       0.000005780171
 84       0.000684707541
 85       0.003758133549
 86      -0.001408318533
 87       0.001290376276
 88       0.001007997099
 89      -0.000000000048
 90       0.000916139243
 91      -0.000379346242
 92       0.000744915472
 93       0.000474055748
 94      -0.000000000028
 95       0.002947067918
 96      -0.001160689194
 97       0.000558133379
 98       0.001278725378
 99       0.000000009404
100      -0.002796526240
101       0.000976459964
102       0.000559633118
103       0.001186856440
104       0.000000006588
105      -0.000824907849
106       0.000270418977
107       0.000700536140
108       0.000505544631
109       0.000000001129
110      -0.003721850118
111       0.001368926711
112       0.001274689222
113       0.000996354248
114      -0.000000002321
 Sym=     1a
 Ene= -9.92753188614785E+00
 Spin= Alpha
 Occup= 2.000000
  1      -0.090736645546
  2      -0.003857185581
  3       0.000944468131
  4       0.000994521352
  5      -0.001274914475
  6      -0.000000014618
  7       0.000451638779
  8       0.002131829379
  9       0.000000014318
 10      -0.000051767324
 11      -0.000000007373
 12      -0.000000001491
 13       0.000689518652
 14      -0.000533021997
 15       0.259214353626
 16       0.012898934913
 17      -0.010027558192
 18      -0.000313871457
 19      -0.000248493611
 20      -0.000000000641
 21      -0.002413489398
 22       0.001845475669
 23       0.000000026058
 24      -0.000518330244
 25      -0.000000005031
 26       0.000000008383
 27      -0.000131803532
 28      -0.000178554855
 29      -0.385079285386
 30      -0.021735907960
 31       0.025369250162
 32      -0.001936268664
 33      -0.000494968488
 34       0.000000007356
 35       0.002199300554
 36       0.002993742842
 37       0.000000010886
 38       0.001692589957
 39       0.000000007025
 40      -0.000000017223
 41      -0.000167771786
 42      -0.001040305078
 43       0.059774501919
 44       0.004228490125
 45      -0.007279625045
 46       0.001957221730
 47      -0.000333874107
 48      -0.000000012411
 49      -0.002061897804
 50      -0.000024485684
 51       0.000000011109
 52      -0.000565960678
 53      -0.000000013764
 54       0.000000011590
 55       0.000101266763
 56      -0.001060880571
 57       0.683622769049
 58       0.037878703717
 59      -0.042513701117
 60      -0.000425911012
 61       0.000667884227
 62       0.000000010637
 63       0.004830734482
 64      -0.003330039393
 65      -0.000000050016
 66      -0.002755322700
 67      -0.000000016870
 68       0.000000033790
 69      -0.000267267974
 70       0.000080846224
 71      -0.528890854205
 72      -0.029499189680
 73       0.033540136230
 74      -0.000247851988
 75       0.001652647149
 76       0.000000015388
 77      -0.002912135164
 78      -0.003725376696
 79      -0.000000013447
 80       0.002199715712
 81       0.000000015440
 82      -0.000000030674
 83       0.000810420152
 84      -0.000282442212
 85       0.000760977609
 86       0.000034369283
 87       0.000108302058
 88       0.000242321997
 89       0.000000000861
 90      -0.001736519918
 91       0.001156297113
 92      -0.000690242720
 93       0.000448682387
 94       0.000000006642
 95       0.001973249356
 96      -0.003468180343
 97       0.000188886513
 98       0.001512339326
 99       0.000000012571
100      -0.000106729332
101       0.001110210206
102      -0.000186446976
103       0.000332687257
104       0.000000003365
105      -0.003676112920
106       0.005682068716
107       0.002231834746
108      -0.001347677586
109      -0.000000014906
110       0.002794918640
111      -0.004526447330
112      -0.001703932252
113      -0.001128627580
114       0.000000003716
 Sym=     1a
 Ene= -9.92753000757374E+00
 Spin= Alpha
 Occup= 2.000000
  1      -0.422146323501
  2      -0.022642205266
  3       0.023008901284
  4      -0.000995428882
  5       0.001298997509
  6       0.000000013577
  7       0.004336862449
  8       0.000427120945
  9      -0.000000017532
 10       0.001430779286
 11       0.000000019930
 12      -0.000000014965
 13      -0.000733626050
 14       0.000478637317
 15      -0.125985275002
 16      -0.006824290309
 17       0.007113407797
 18      -0.001303796802
 19      -0.002050562917
 20      -0.000000009164
 21       0.002276704715
 22       0.001617190460
 23       0.000000001322
 24       0.000450652196
 25       0.000000004221
 26       0.000000005466
 27      -0.001137957265
 28      -0.000654478737
 29       0.524686344042
 30       0.028214452364
 31      -0.029148437114
 32      -0.000803224721
 33       0.000305927604
 34       0.000000003766
 35       0.000749822498
 36      -0.004977482783
 37      -0.000000038740
 38      -0.001808235026
 39      -0.000000018702
 40       0.000000028040
 41       0.000050788975
 42      -0.000436932126
 43       0.554600547911
 44       0.029900921194
 45      -0.030962076754
 46       0.000769406050
 47      -0.000344368641
 48      -0.000000006069
 49      -0.000891395573
 50       0.005177594639
 51       0.000000043862
 52      -0.001936623676
 53      -0.000000020169
 54       0.000000027768
 55       0.000059108945
 56      -0.000416546942
 57      -0.097037012865
 58      -0.005184379930
 59       0.005307597978
 60       0.001251648987
 61       0.002040185347
 62       0.000000008248
 63      -0.002187057101
 64      -0.001845170832
 65      -0.000000002412
 66       0.000323282077
 67       0.000000002541
 68       0.000000007181
 69      -0.001123359596
 70      -0.000635910260
 71      -0.434043987877
 72      -0.023460852551
 73       0.024678933764
 74       0.001046582036
 75      -0.001272207630
 76      -0.000000012928
 77      -0.004403213943
 78      -0.000474019823
 79       0.000000017539
 80       0.001540188320
 81       0.000000023419
 82      -0.000000015766
 83      -0.000720096298
 84       0.000503501333
 85       0.002442722105
 86      -0.002996124911
 87       0.001401481229
 88       0.000619995881
 89      -0.000000003267
 90       0.000713071499
 91      -0.000938652847
 92       0.000517732260
 93      -0.000032032499
 94      -0.000000002818
 95      -0.003021370589
 96       0.003782021002
 97       0.000067121296
 98      -0.001904498152
 99      -0.000000017879
100      -0.003173998586
101       0.004044752518
102      -0.000052340582
103       0.002021496381
104       0.000000016295
105       0.000567061684
106      -0.000678432033
107      -0.000411753556
108      -0.000013114957
109       0.000000001053
110       0.002471716633
111      -0.003212741621
112      -0.001457414619
113      -0.000650848541
114       0.000000005495
 Sym=     1a
 Ene= -9.92752583979129E+00
 Spin= Alpha
 Occup= 2.000000
  1       0.552343039732
  2       0.031346661416
  3      -0.037228139810
  4       0.000197424031
  5       0.001229599677
  6       0.000000008908
  7      -0.003225566275
  8      -0.002974257313
  9      -0.000000006698
 10      -0.002489724491
 11      -0.000000018579
 12       0.000000035179
 13      -0.000575435941
 14       0.000061522196
 15      -0.641467055317
 16      -0.036123549846
 17       0.042029874390
 18      -0.000546504162
 19       0.000698483625
 20       0.000000007143
 21       0.004232324147
 22      -0.002861290093
 23      -0.000000040119
 24       0.002790426160
 25       0.000000021150
 26      -0.000000037464
 27       0.000274531122
 28      -0.000130498464
 29      -0.250166347867
 30      -0.015086311848
 31       0.020514065764
 32       0.001269610818
 33      -0.000612344705
 34      -0.000000009545
 35      -0.001409542141
 36       0.001448153477
 37       0.000000016437
 38       0.001446786443
 39       0.000000018327
 40      -0.000000021660
 41      -0.000200002471
 42       0.000690544951
 43       0.421181200096
 44       0.024299059047
 45      -0.030052188050
 46      -0.001291396041
 47      -0.000695742912
 48       0.000000000940
 49       0.001390654446
 50       0.003037822772
 51       0.000000016956
 52      -0.002041198892
 53      -0.000000013115
 54       0.000000022085
 55       0.000240727070
 56       0.000691524300
 57       0.041553201834
 58       0.003824533523
 59      -0.008629770444
 60      -0.000565469288
 61      -0.000032662492
 62       0.000000002750
 63      -0.000274805021
 64       0.000590486864
 65       0.000000005240
 66      -0.000709849089
 67      -0.000000004484
 68       0.000000007351
 69       0.000060267550
 70       0.000239853050
 71      -0.124463666115
 72      -0.008302279707
 73       0.013382184299
 74       0.000924004827
 75      -0.000566481110
 76      -0.000000008483
 77      -0.000755460245
 78       0.000827712042
 79       0.000000009521
 80       0.001004003970
 81       0.000000014247
 82      -0.000000012391
 83      -0.000340272715
 84       0.000427652138
 85      -0.002794800968
 86       0.005089386778
 87      -0.001857785875
 88      -0.001163900409
 89       0.000000001635
 90       0.003309494339
 91      -0.005720664788
 92       0.002149559417
 93      -0.001300004223
 94      -0.000000020424
 95       0.001056910285
 96      -0.002910594666
 97      -0.000109914664
 98       0.001093702879
 99       0.000000010121
100      -0.002038919741
101       0.004151421881
102       0.000135815689
103       0.001714107290
104       0.000000012792
105       0.000133636037
106       0.001370744642
107       0.000299168388
108      -0.000143272470
109      -0.000000002327
110       0.000338402942
111      -0.001985969710
112      -0.000593601922
113      -0.000238256597
114       0.000000001915
 Sym=     1a
 Ene= -7.52888533686037E-01
 Spin= Alpha
 Occup= 2.000000
  1      -0.119316911402
  2       0.229823332417
  3       0.050053679468
  4       0.057445810251
  5       0.032602670675
  6      -0.000000036981
  7       0.013108904037
  8       0.007436419784
  9      -0.000000023739
 10      -0.007476156934
 11      -0.000000070404
 12       0.000000109588
 13      -0.000882087889
 14      -0.001476282632
 15      -0.119314785167
 16       0.229819394554
 17       0.050060018885
 18       0.056955821166
 19      -0.033452905974
 20      -0.000000516345
 21       0.012999527078
 22      -0.007633404135
 23      -0.000000109688
 24      -0.007476438122
 25      -0.000000046743
 26       0.000000094629
 27      -0.000837776410
 28       0.001500879510
 29      -0.119314958766
 30       0.229821396015
 31       0.050048957191
 32       0.000491031256
 33       0.066054383677
 34       0.000000484572
 35       0.000112680350
 36       0.015066628186
 37       0.000000136654
 38      -0.007476808871
 39      -0.000000070832
 40       0.000000083977
 41       0.001717315638
 42      -0.000025421251
 43      -0.119313361294
 44       0.229818213335
 45       0.050049420418
 46      -0.000486162268
 47      -0.066053704272
 48      -0.000000505466
 49      -0.000109826300
 50      -0.015066885348
 51      -0.000000127757
 52      -0.007476762754
 53      -0.000000073178
 54       0.000000085749
 55       0.001717286345
 56      -0.000026026387
 57      -0.119321842560
 58       0.229833235784
 59       0.050062383715
 60      -0.056957272103
 61       0.033455076586
 62       0.000000519431
 63      -0.012999979840
 64       0.007634367647
 65       0.000000086862
 66      -0.007476712433
 67      -0.000000046617
 68       0.000000092625
 69      -0.000837999677
 70       0.001501005600
 71      -0.119322114716
 72       0.229833505262
 73       0.050054319200
 74      -0.057446054600
 75      -0.032606322946
 76       0.000000053994
 77      -0.013107781547
 78      -0.007438269637
 79       0.000000037902
 80      -0.007476342624
 81      -0.000000072563
 82       0.000000107573
 83      -0.000882466250
 84      -0.001476223587
 85       0.043567063755
 86       0.009473775471
 87       0.006236568407
 88       0.003539500952
 89      -0.000000005959
 90       0.043566009173
 91       0.009474154891
 92       0.006182978415
 93      -0.003631473220
 94      -0.000000057922
 95       0.043565490566
 96       0.009471221173
 97       0.000053252229
 98       0.007169877200
 99       0.000000059431
100       0.043564764285
101       0.009471160090
102      -0.000053049913
103      -0.007169763152
104      -0.000000055079
105       0.043569327311
106       0.009474814268
107      -0.006183375485
108       0.003631727472
109       0.000000047689
110       0.043569376582
111       0.009474049579
112      -0.006236831671
113      -0.003539763737
114       0.000000012251
 Sym=     1a
 Ene= -6.53888866177292E-01
 Spin= Alpha
 Occup= 2.000000
  1      -0.147784961869
  2       0.295258955320
  3       0.067412086501
  4      -0.004973678188
  5       0.058020622526
  6       0.000000462837
  7      -0.004242588399
  8       0.018320777912
  9       0.000000160728
 10      -0.005375799838
 11      -0.000000025734
 12       0.000000127417
 13      -0.006829918193
 14      -0.001730513031
 15      -0.141193409476
 16       0.282089188962
 17       0.064410193836
 18      -0.010702308010
 19      -0.064095177942
 20      -0.000000407878
 21      -0.006059288856
 22      -0.020421825790
 23      -0.000000125950
 24      -0.005136330184
 25       0.000000003279
 26       0.000000112748
 27      -0.007305627972
 28       0.001381354217
 29      -0.006595337069
 30       0.013177255217
 31       0.003009342489
 32      -0.113574786602
 33       0.001927111562
 34       0.000000558661
 35      -0.038703417103
 36       0.000524836900
 37       0.000000179852
 38      -0.000239912190
 39      -0.000000084331
 40       0.000000054205
 41       0.000063974257
 42      -0.010684618760
 43       0.006588294146
 44      -0.013163263441
 45      -0.003007422838
 46      -0.113574329095
 47       0.001926530853
 48       0.000000579958
 49      -0.038704600569
 50       0.000523401679
 51       0.000000207813
 52       0.000239657474
 53       0.000000085446
 54      -0.000000055821
 55      -0.000063871663
 56       0.010684595508
 57       0.141190305968
 58      -0.282083240311
 59      -0.064407952544
 60      -0.010706991142
 61      -0.064096311879
 62      -0.000000438970
 63      -0.006059213146
 64      -0.020421871147
 65      -0.000000098774
 66       0.005136038071
 67      -0.000000005119
 68      -0.000000107043
 69       0.007305737562
 70      -0.001381202361
 71       0.147781170581
 72      -0.295251569395
 73      -0.067409889828
 74      -0.004977402134
 75       0.058022422512
 76       0.000000455784
 77      -0.004244735974
 78       0.018323685205
 79       0.000000133022
 80       0.005375517743
 81       0.000000028387
 82      -0.000000122870
 83       0.006830061980
 84       0.001730289126
 85       0.087433550387
 86       0.015640228587
 87       0.008938805523
 88       0.006194779266
 89      -0.000000002405
 90       0.083532673976
 91       0.014943034949
 92       0.008356553004
 93      -0.006205551589
 94      -0.000000087240
 95       0.003903527376
 96       0.000697519509
 97      -0.002090438984
 98       0.000499133722
 99       0.000000015027
100      -0.003896919473
101      -0.000695675175
102      -0.002090424571
103       0.000498234059
104       0.000000013928
105      -0.083532844135
106      -0.014943641921
107       0.008356395165
108      -0.006205558446
109      -0.000000069728
110      -0.087432132547
111      -0.015640145038
112       0.008938487352
113       0.006194749926
114      -0.000000012530
 Sym=     1a
 Ene= -6.53886315742823E-01
 Spin= Alpha
 Occup= 2.000000
  1       0.077708205406
  2      -0.155254137007
  3      -0.035441948672
  4      -0.060779858599
  5       0.081202066954
  6       0.000000899343
  7      -0.019367496477
  8       0.028437341267
  9       0.000000318764
 10       0.002826562544
 11       0.000000111236
 12      -0.000000021007
 13      -0.006778958570
 14       0.007103992472
 15      -0.089126151048
 16       0.178064946518
 17       0.040650027131
 18       0.061321859536
 19       0.075465749673
 20       0.000000272531
 21       0.019371867191
 22       0.026615215834
 23       0.000000099539
 24      -0.003242089426
 25      -0.000000005346
 26      -0.000000039236
 27       0.006430184042
 28       0.007030472887
 29       0.166838604889
 30      -0.333328370716
 31      -0.076112670379
 32      -0.004690507308
 33      -0.027416570123
 34      -0.000000156948
 35      -0.001577612197
 36      -0.006031906730
 37      -0.000000055486
 38       0.006069577620
 39       0.000000074935
 40      -0.000000038375
 41      -0.005634241323
 42      -0.000338480897
 43      -0.166839172932
 44       0.333329359635
 45       0.076113443258
 46      -0.004686391155
 47      -0.027417119279
 48      -0.000000201572
 49      -0.001571036819
 50      -0.006032060715
 51      -0.000000039353
 52      -0.006069653841
 53      -0.000000077696
 54       0.000000037594
 55       0.005634310370
 56       0.000338057085
 57       0.089127001572
 58      -0.178066781070
 59      -0.040648697810
 60       0.061322573382
 61       0.075469835254
 62       0.000000243213
 63       0.019370212454
 64       0.026613067793
 65       0.000000115836
 66       0.003241997248
 67       0.000000002370
 68       0.000000038745
 69      -0.006430385729
 70      -0.007030598805
 71      -0.077712485579
 72       0.155262686838
 73       0.035441532725
 74      -0.060780612101
 75       0.081203601396
 76       0.000000890467
 77      -0.019365692359
 78       0.028434065394
 79       0.000000301693
 80      -0.002826634695
 81      -0.000000114110
 82       0.000000024028
 83       0.006779017936
 84      -0.007104073861
 85      -0.045973070803
 86      -0.008221694057
 87      -0.005868742794
 88      -0.001197453168
 89       0.000000021636
 90       0.052729994675
 91       0.009432436131
 92       0.006530166303
 93      -0.001779789749
 94      -0.000000045122
 95      -0.098706953399
 96      -0.017654618825
 97      -0.000173489008
 98      -0.012226370336
 99      -0.000000103746
100       0.098706838522
101       0.017654493122
102      -0.000173252630
103      -0.012226397456
104      -0.000000094696
105      -0.052731610336
106      -0.009433056256
107       0.006530351966
108      -0.001779720124
109      -0.000000034502
110       0.045977142138
111       0.008222797045
112      -0.005869223792
113      -0.001197655905
114       0.000000028159
 Sym=     1a
 Ene= -5.25766798361756E-01
 Spin= Alpha
 Occup= 2.000000
  1      -0.047372361663
  2       0.098742499591
  3       0.027474220306
  4      -0.115088145034
  5       0.155660531706
  6       0.000001745861
  7      -0.027203007432
  8       0.052656739938
  9       0.000000539507
 10      -0.000502796466
 11       0.000000052887
 12       0.000000028660
 13      -0.005772139173
 14       0.003639778363
 15      -0.082413293523
 16       0.171781935223
 17       0.047791168162
 18      -0.116149655211
 19      -0.117854738636
 20      -0.000000304279
 21      -0.021553874721
 22      -0.044689703806
 23      -0.000000229076
 24      -0.000874786761
 25      -0.000000006833
 26       0.000000059821
 27      -0.004834485761
 28      -0.003024828024
 29       0.129788662665
 30      -0.270532600210
 31      -0.075284381450
 32       0.032207655350
 33       0.063513932246
 34       0.000000415621
 35       0.009733683539
 36      -0.006443478407
 37      -0.000000089390
 38       0.001377919061
 39       0.000000019895
 40      -0.000000032445
 41       0.000469116176
 42       0.001119528765
 43       0.129788144637
 44      -0.270531447708
 45      -0.075275492374
 46      -0.032210583465
 47      -0.063512451550
 48      -0.000000323580
 49      -0.009740868589
 50       0.006439628698
 51       0.000000093312
 52       0.001377899213
 53       0.000000017113
 54      -0.000000030054
 55       0.000468930580
 56       0.001120063811
 57      -0.082411667699
 58       0.171778889691
 59       0.047802161634
 60       0.116151883227
 61       0.117855667267
 62       0.000000378156
 63       0.021549427026
 64       0.044689678463
 65       0.000000222695
 66      -0.000874728415
 67      -0.000000005217
 68       0.000000052512
 69      -0.004834370212
 70      -0.003024960661
 71      -0.047368250575
 72       0.098734522047
 73       0.027469573448
 74       0.115086887171
 75      -0.155663833838
 76      -0.000001731174
 77       0.027206456882
 78      -0.052654421172
 79      -0.000000505574
 80      -0.000502683259
 81       0.000000051248
 82       0.000000022326
 83      -0.005772308820
 84       0.003639749143
 85       0.054059091958
 86       0.017309697970
 87       0.001803652790
 88       0.005739128912
 89       0.000000031688
 90       0.094040464428
 91       0.030109107325
 92       0.004868079306
 93      -0.006829309574
 94      -0.000000075451
 95      -0.148112129436
 96      -0.047417754255
 97       0.000587253991
 98      -0.012061896220
 99      -0.000000109037
100      -0.148109219257
101      -0.047416232088
102      -0.000587696070
103       0.012061735239
104       0.000000097601
105       0.094040812464
106       0.030109759148
107      -0.004867918265
108       0.006829363150
109       0.000000059233
110       0.054051504790
111       0.017306385103
112      -0.001803003876
113      -0.005738956971
114      -0.000000026649
 Sym=     1a
 Ene= -5.25757600763206E-01
 Spin= Alpha
 Occup= 2.000000
  1       0.122510823708
  2      -0.255362288028
  3      -0.071056234984
  4       0.015664849408
  5       0.094331073586
  6       0.000000602343
  7      -0.016530416790
  8       0.016941581492
  9       0.000000211790
 10       0.001300136865
 11       0.000000033233
 12      -0.000000000327
 13      -0.002483407989
 14       0.000986287864
 15      -0.102280630492
 16       0.213193831980
 17       0.059322467586
 18       0.022140076362
 19       0.136922367870
 20       0.000000929138
 21       0.024502191221
 22       0.031804446671
 23       0.000000112023
 24      -0.001085493350
 25      -0.000000012572
 26      -0.000000024575
 27       0.004181300496
 28       0.001924084311
 29      -0.020229606293
 30       0.042167121046
 31       0.011730211961
 32       0.203505806912
 33      -0.011444855778
 34      -0.000001057695
 35       0.062760952800
 36       0.000524152382
 37      -0.000000284298
 38      -0.000214673310
 39       0.000000057178
 40      -0.000000029739
 41       0.000036891524
 42       0.007227439506
 43      -0.020234337744
 44       0.042176416766
 45       0.011742426006
 46      -0.203505111014
 47       0.011451796600
 48       0.000001119680
 49      -0.062760906287
 50      -0.000532070622
 51       0.000000326566
 52      -0.000214815830
 53       0.000000058702
 54      -0.000000034715
 55       0.000036566828
 56       0.007227324882
 57      -0.102280959203
 58       0.213194662198
 59       0.059341108664
 60      -0.022137971911
 61      -0.136923467883
 62      -0.000000789118
 63      -0.024506731134
 64      -0.031796967094
 65      -0.000000109536
 66      -0.001085465517
 67      -0.000000007509
 68      -0.000000024869
 69       0.004181386376
 70       0.001923805616
 71       0.122511358558
 72      -0.255363420206
 73      -0.071073723028
 74      -0.015667396010
 75      -0.094331219321
 76      -0.000000515516
 77       0.016534192742
 78      -0.016932631364
 79      -0.000000199377
 80       0.001300126147
 81       0.000000038581
 82      -0.000000005102
 83      -0.002483383874
 84       0.000985874374
 85      -0.139806958290
 86      -0.044762728529
 87      -0.010681230635
 88      -0.004237845797
 89       0.000000026097
 90       0.116724231568
 91       0.037372910365
 92       0.009590716031
 93      -0.002432875789
 94      -0.000000065345
 95       0.023080952899
 96       0.007388833485
 97       0.004357534886
 98       0.001846582267
 99      -0.000000004498
100       0.023094901220
101       0.007394818313
102      -0.004357456523
103      -0.001847658037
104       0.000000006986
105       0.116727353981
106       0.037375210154
107      -0.009590836096
108       0.002432818421
109       0.000000046294
110      -0.139811130088
111      -0.044765331792
112       0.010681336368
113       0.004238055471
114      -0.000000039090
 Sym=     1a
 Ene= -4.56912719805302E-01
 Spin= Alpha
 Occup= 2.000000
  1       0.013301763164
  2      -0.027769025115
  3      -0.026619029279
  4       0.172095149152
  5       0.097653310173
  6      -0.000000144853
  7       0.057399881370
  8       0.032569921746
  9      -0.000000030769
 10      -0.000179184170
 11       0.000000029286
 12      -0.000000049804
 13       0.003347958334
 14       0.005605044061
 15       0.013302808869
 16      -0.027770274322
 17      -0.026633174298
 18       0.170629470545
 19      -0.100193610295
 20      -0.000001578499
 21       0.056906625889
 22      -0.033413593498
 23      -0.000000539866
 24      -0.000179290041
 25      -0.000000059074
 26       0.000000006434
 27       0.003180622777
 28      -0.005702296701
 29       0.013300077378
 30      -0.027759784617
 31      -0.026664911493
 32       0.001473270572
 33       0.197870920033
 34       0.000001538711
 35       0.000489580380
 36       0.065965865006
 37       0.000000483446
 38      -0.000179347611
 39       0.000000028126
 40       0.000000038581
 41      -0.006529309032
 42       0.000096758499
 43       0.013299558716
 44      -0.027759117777
 45      -0.026657976269
 46      -0.001466911428
 47      -0.197867513718
 48      -0.000001493174
 49      -0.000493688369
 50      -0.065969213683
 51      -0.000000478619
 52      -0.000179383039
 53       0.000000034617
 54       0.000000048043
 55      -0.006529415201
 56       0.000096734653
 57       0.013301898515
 58      -0.027767856082
 59      -0.026618540695
 60      -0.170639459745
 61       0.100196742354
 62       0.000001450744
 63      -0.056913068358
 64       0.033415008305
 65       0.000000519069
 66      -0.000179411898
 67      -0.000000070965
 68       0.000000014411
 69       0.003180544012
 70      -0.005702254995
 71       0.013302042269
 72      -0.027768932213
 73      -0.026623520226
 74      -0.172102729257
 75      -0.097657062090
 76       0.000000234991
 77      -0.057400147095
 78      -0.032564827279
 79       0.000000047806
 80      -0.000179179842
 81       0.000000031302
 82      -0.000000042261
 83       0.003347868388
 84       0.005604940152
 85      -0.138963791310
 86      -0.034040777646
 87      -0.006189557967
 88      -0.003512793499
 89       0.000000007566
 90      -0.138965629633
 91      -0.034041382096
 92      -0.006137053653
 93       0.003604353300
 94       0.000000058592
 95      -0.138969916040
 96      -0.034046455482
 97      -0.000052751455
 98      -0.007117245891
 99      -0.000000064138
100      -0.138966367594
101      -0.034044337457
102       0.000052897361
103       0.007117116780
104       0.000000055145
105      -0.138973064682
106      -0.034045215941
107       0.006137259404
108      -0.003604530210
109      -0.000000039961
110      -0.138971130080
111      -0.034044946757
112       0.006189782186
113       0.003512933072
114      -0.000000017489
 Sym=     1a
 Ene= -3.98350230582794E-01
 Spin= Alpha
 Occup= 2.000000
  1      -0.076000348425
  2       0.160135431254
  3       0.407473662959
  4      -0.113335156366
  5      -0.064285459041
  6       0.000000352391
  7       0.122483606214
  8       0.069538825083
  9       0.000000002347
 10      -0.000524559843
 11       0.000000053163
 12      -0.000000096198
 13       0.006350679565
 14       0.010629422800
 15       0.075998977565
 16      -0.160130370745
 17      -0.407460082625
 18       0.112346002524
 19      -0.066047164451
 20      -0.000000849808
 21      -0.121447263306
 22       0.071325995947
 23       0.000001182220
 24       0.000524657338
 25       0.000000122670
 26      -0.000000019040
 27      -0.006034096159
 28       0.010812880563
 29       0.075990906930
 30      -0.160108284590
 31      -0.407424020542
 32       0.001002587585
 33       0.130378378765
 34       0.000001409428
 35      -0.001034421226
 36      -0.140829623533
 37      -0.000000918764
 38       0.000524856933
 39      -0.000000048083
 40      -0.000000096068
 41       0.012382174219
 42      -0.000184377552
 43      -0.075992535553
 44       0.160112039020
 45       0.407422416166
 46       0.001006275631
 47       0.130380237942
 48       0.000001255095
 49      -0.001023459041
 50      -0.140827780370
 51      -0.000000974568
 52      -0.000524796938
 53       0.000000067641
 54       0.000000091357
 55      -0.012382184884
 56       0.000183534644
 57      -0.075993666325
 58       0.160119059090
 59       0.407468955261
 60       0.112345138515
 61      -0.066045189241
 62      -0.000000479160
 63      -0.121449939929
 64       0.071323909748
 65       0.000001243217
 66      -0.000524747571
 67      -0.000000110915
 68       0.000000015314
 69       0.006033859561
 70      -0.010812607400
 71       0.075996738507
 72      -0.160127417066
 73      -0.407479616986
 74      -0.113334424045
 75      -0.064280132969
 76       0.000000575063
 77       0.122485910051
 78       0.069540924197
 79       0.000000008587
 80       0.000524643451
 81      -0.000000037475
 82       0.000000085710
 83      -0.006350151955
 84      -0.010629609767
 85       0.196660483960
 86       0.099369320752
 87       0.007670356587
 88       0.004352850816
 89      -0.000000006767
 90      -0.196679522105
 91      -0.099380324679
 92      -0.007606407255
 93       0.004464998201
 94       0.000000077802
 95      -0.196723251591
 96      -0.099400256171
 97      -0.000065229139
 98      -0.008820779516
 99      -0.000000078699
100       0.196725644988
101       0.099400730394
102      -0.000064423162
103      -0.008820966902
104      -0.000000063616
105       0.196673825714
106       0.099377607745
107      -0.007605935203
108       0.004464842804
109       0.000000049879
110      -0.196655507321
111      -0.099367775575
112       0.007669748344
113       0.004353147934
114      -0.000000020087
 Sym=     1a
 Ene= -3.87595787365074E-01
 Spin= Alpha
 Occup= 2.000000
  1      -0.000008137862
  2       0.000014163361
  3       0.000038408288
  4       0.138129877486
  5      -0.243544055834
  6      -0.000002481890
  7       0.044881968240
  8      -0.079080280959
  9      -0.000000809087
 10      -0.000000012484
 11      -0.000000027838
 12      -0.000000012024
 13       0.002941252078
 14      -0.001754308931
 15       0.000016772187
 16      -0.000039377232
 17      -0.000091560015
 18       0.141736082632
 19       0.241451811490
 20       0.000001128283
 21       0.046018973868
 22       0.078437882282
 23       0.000000367269
 24       0.000000098460
 25      -0.000000000331
 26      -0.000000028608
 27       0.002989447451
 28       0.001668963474
 29       0.000011372166
 30      -0.000023782788
 31      -0.000053404564
 32      -0.279958456386
 33       0.002108724255
 34       0.000001346453
 35      -0.090977803241
 36       0.000662936404
 37       0.000000434033
 38      -0.000000048205
 39      -0.000000025862
 40       0.000000016025
 41      -0.000049345385
 42      -0.003421072608
 43      -0.000010681442
 44       0.000021603878
 45       0.000054738421
 46      -0.279952942912
 47       0.002122014008
 48       0.000001417627
 49      -0.090975180331
 50       0.000656438635
 51       0.000000463645
 52      -0.000000149317
 53       0.000000028893
 54      -0.000000018016
 55       0.000047956353
 56       0.003420771560
 57      -0.000016289420
 58       0.000038648607
 59       0.000090342457
 60       0.141739246695
 61       0.241470695035
 62       0.000001065124
 63       0.046020962067
 64       0.078441051127
 65       0.000000345836
 66      -0.000000074555
 67       0.000000001777
 68       0.000000027373
 69      -0.002990142975
 70      -0.001669166651
 71       0.000008080459
 72      -0.000013265362
 73      -0.000039932149
 74       0.138123821031
 75      -0.243562042054
 76      -0.000002473733
 77       0.044886775271
 78      -0.079082741801
 79      -0.000000800530
 80       0.000000121520
 81       0.000000029108
 82       0.000000009628
 83      -0.002942185189
 84       0.001753988398
 85       0.000063230867
 86       0.000030142848
 87       0.003480903394
 88      -0.006129458108
 89      -0.000000062471
 90       0.000023940916
 91       0.000010513205
 92       0.003569685105
 93       0.006077492446
 94       0.000000028359
 95      -0.000032859955
 96      -0.000015135889
 97      -0.007046797087
 98       0.000051138628
 99       0.000000033827
100       0.000053471933
101       0.000027651654
102      -0.007046705294
103       0.000050112438
104       0.000000035611
105      -0.000030277699
106      -0.000013931393
107       0.003570179121
108       0.006077787729
109       0.000000026821
110      -0.000079921788
111      -0.000039744721
112       0.003481752152
113      -0.006129313374
114      -0.000000062220
 Sym=     1a
 Ene= -3.65194953818013E-01
 Spin= Alpha
 Occup= 2.000000
  1      -0.009385303471
  2       0.025793754546
  3       0.037425680339
  4       0.121729047480
  5      -0.023605360381
  6      -0.000000729007
  7      -0.009528692944
  8       0.066990602274
  9       0.000000592557
 10       0.000129386607
 11      -0.000000095495
 12      -0.000000046445
 13       0.010278748846
 14      -0.007148862930
 15       0.020643888158
 16      -0.056726680610
 17      -0.082326652005
 18      -0.210389882884
 19       0.050771856369
 20       0.000001419812
 21      -0.022198140786
 22       0.069818308100
 23       0.000000613985
 24      -0.000284262705
 25      -0.000000012317
 26       0.000000092760
 27      -0.007559013466
 28      -0.006395071217
 29      -0.030059944291
 30       0.082588697378
 31       0.119872141956
 32       0.020178450794
 33       0.301164529322
 34       0.000002325386
 35      -0.013381898402
 36       0.079413194497
 37       0.000000663048
 38       0.000413108800
 39       0.000000002459
 40      -0.000000054658
 41       0.002803075430
 42       0.002732033620
 43       0.030060406523
 44      -0.082589533675
 45      -0.119872470654
 46       0.020165889230
 47       0.301163908133
 48       0.000002223772
 49      -0.013374411395
 50       0.079414260585
 51       0.000000706856
 52      -0.000413115550
 53      -0.000000014181
 54       0.000000042950
 55      -0.002802784494
 56      -0.002732313386
 57      -0.020642457608
 58       0.056723786222
 59       0.082325983781
 60      -0.210399232835
 61       0.050767111816
 62       0.000001153919
 63      -0.022202169238
 64       0.069808879290
 65       0.000000578197
 66       0.000284232444
 67      -0.000000002906
 68      -0.000000095039
 69       0.007558913341
 70       0.006396111741
 71       0.009383369807
 72      -0.025790029920
 73      -0.037423696287
 74       0.121744113711
 75      -0.023598677684
 76      -0.000000938559
 77      -0.009523279883
 78       0.066983491429
 79       0.000000455050
 80      -0.000129342879
 81       0.000000096007
 82       0.000000050628
 83      -0.010278369927
 84       0.007149876511
 85      -0.068322026473
 86      -0.036176853613
 87      -0.000798672084
 88      -0.003423228671
 89      -0.000000019137
 90       0.150183155768
 91       0.079517456580
 92       0.003500288685
 93      -0.004387734077
 94      -0.000000049896
 95      -0.218429990210
 96      -0.115649833963
 97       0.000517838904
 98      -0.007625262108
 99      -0.000000073969
100       0.218427927410
101       0.115648200051
102       0.000517928869
103      -0.007625176209
104      -0.000000063440
105      -0.150191799628
106      -0.079523841277
107       0.003500449668
108      -0.004387922344
109      -0.000000036090
110       0.068339250892
111       0.036186988977
112      -0.000799140604
113      -0.003423511210
114      -0.000000016894
 Sym=     1a
 Ene= -3.65189479827903E-01
 Spin= Alpha
 Occup= 2.000000
  1       0.029272295797
  2      -0.080429619823
  3      -0.116722062397
  4      -0.242572148628
  5      -0.167336778215
  6       0.000000031416
  7      -0.077161868130
  8      -0.020533288379
  9       0.000000268340
 10      -0.000403378344
 11      -0.000000031250
 12      -0.000000031145
 13       0.004824006794
 14       0.000258943331
 15       0.022782736657
 16      -0.062591327549
 17      -0.090843279246
 18      -0.168130494174
 19       0.164640872537
 20       0.000002085311
 21      -0.074335301766
 22      -0.007887305382
 23       0.000000293550
 24      -0.000313700737
 25      -0.000000026743
 26      -0.000000074878
 27       0.008716894470
 28       0.002463396396
 29       0.006506857880
 30      -0.017876501303
 31      -0.025946878975
 32       0.082351304708
 33      -0.065797220680
 34      -0.000000984788
 35      -0.064718818912
 36      -0.016680402237
 37       0.000000125798
 38      -0.000089460408
 39       0.000000085529
 40      -0.000000056416
 41      -0.000406905910
 42       0.012829141704
 43      -0.006507859229
 44       0.017878156174
 45       0.025946462063
 46       0.082354075742
 47      -0.065783104423
 48      -0.000000815324
 49      -0.064723804769
 50      -0.016676840686
 51       0.000000266818
 52       0.000089495687
 53      -0.000000088229
 54       0.000000054078
 55       0.000406231821
 56      -0.012829123641
 57      -0.022782478811
 58       0.062590768210
 59       0.090844518749
 60      -0.168122602097
 61       0.164645392608
 62       0.000001804624
 63      -0.074330325210
 64      -0.007882425002
 65       0.000000281962
 66       0.000313685118
 67       0.000000019625
 68       0.000000088995
 69      -0.008717379235
 70      -0.002463198074
 71      -0.029271650741
 72       0.080428413661
 73       0.116722642971
 74      -0.242568221694
 75      -0.167342338879
 76       0.000000239330
 77      -0.077162353096
 78      -0.020528661372
 79       0.000000276009
 80       0.000403374739
 81       0.000000031751
 82       0.000000045907
 83      -0.004824144427
 84      -0.000259485416
 85       0.212835494203
 86       0.112695516093
 87       0.006866816609
 88       0.002945184329
 89      -0.000000017097
 90       0.165543537124
 91       0.087653198457
 92       0.005902707070
 93      -0.001354119299
 94      -0.000000038602
 95       0.047251257150
 96       0.025020824935
 97       0.002666679676
 98       0.001628794793
 99       0.000000002014
100      -0.047237798039
101      -0.025013251722
102       0.002666676463
103       0.001628433097
104       0.000000000820
105      -0.165541926918
106      -0.087653962562
107       0.005902622878
108      -0.001353971583
109      -0.000000023160
110      -0.212837690707
111      -0.112698164589
112       0.006866837678
113       0.002945229545
114      -0.000000027065
 Sym=     1a
 Ene= -3.16386690702224E-01
 Spin= Alpha
 Occup= 2.000000
  1      -0.000000097035
  2       0.000000195047
  3       0.000000248181
  4      -0.000002150109
  5       0.000002079260
  6      -0.230263302106
  7      -0.000000787185
  8       0.000001145158
  9      -0.122100719470
 10       0.000000010585
 11      -0.008963414183
 12      -0.005087153159
 13      -0.000000078338
 14       0.000000110458
 15       0.000000065155
 16      -0.000000106860
 17      -0.000000344247
 18      -0.000000224693
 19       0.000001282616
 20      -0.230260234652
 21      -0.000000595792
 22       0.000000931833
 23      -0.122098388178
 24       0.000000141408
 25      -0.008887198584
 26       0.005219856223
 27      -0.000000044639
 28       0.000000172179
 29       0.000000162574
 30      -0.000000390748
 31      -0.000000045015
 32      -0.000000204995
 33       0.000001602722
 34      -0.230261391492
 35      -0.000000265017
 36       0.000001048637
 37      -0.122105975054
 38      -0.000000136581
 39      -0.000076604673
 40      -0.010306279527
 41      -0.000000081590
 42      -0.000000013035
 43      -0.000000092777
 44       0.000000197467
 45       0.000000187211
 46      -0.000002023542
 47       0.000002298274
 48      -0.230257965206
 49      -0.000000945471
 50       0.000000978222
 51      -0.122103804002
 52       0.000000137722
 53       0.000075930080
 54       0.010306195206
 55       0.000000022665
 56       0.000000084351
 57      -0.000000188700
 58       0.000000471468
 59      -0.000000110237
 60      -0.000001572396
 61       0.000001885006
 62      -0.230273936737
 63      -0.000000423407
 64       0.000000750038
 65      -0.122107065754
 66      -0.000000131655
 67       0.008887389950
 68      -0.005220158295
 69      -0.000000014621
 70      -0.000000054330
 71       0.000000152528
 72      -0.000000370494
 73       0.000000056935
 74      -0.000000656289
 75       0.000001017699
 76      -0.230273535823
 77      -0.000000634758
 78       0.000000531038
 79      -0.122107025652
 80      -0.000000021106
 81       0.008963429452
 82       0.005087656660
 83       0.000000059836
 84      -0.000000015154
 85       0.000000757606
 86       0.000000459561
 87      -0.000000020136
 88       0.000000069895
 89      -0.005938460810
 90      -0.000001117149
 91      -0.000000682541
 92      -0.000000057383
 93       0.000000063321
 94      -0.005938476009
 95       0.000000148247
 96       0.000000112953
 97      -0.000000008623
 98       0.000000055074
 99      -0.005938379002
100       0.000000636088
101       0.000000376939
102      -0.000000048640
103       0.000000027338
104      -0.005938253741
105      -0.000000617967
106      -0.000000408398
107      -0.000000005849
108       0.000000028813
109      -0.005938913919
110       0.000000194484
111       0.000000147604
112      -0.000000032122
113       0.000000021495
114      -0.005938798183
 Sym=     1a
 Ene= -2.95357168563671E-01
 Spin= Alpha
 Occup= 2.000000
  1      -0.002266819107
  2       0.009173716060
  3      -0.023611861698
  4      -0.049597922359
  5       0.260377886112
  6       0.000002469147
  7      -0.048371043248
  8       0.080074659516
  9       0.000000993142
 10       0.000364511842
 11       0.000000057528
 12       0.000000124774
 13      -0.012164699723
 14      -0.001200195256
 15      -0.003661949435
 16       0.014815251083
 17      -0.038112544646
 18       0.010223331709
 19      -0.254736414698
 20      -0.000001181334
 21      -0.044028228024
 22      -0.066838198065
 23       0.000000143736
 24       0.000588557850
 25       0.000000149367
 26       0.000000063685
 27      -0.013051793999
 28       0.006154850786
 29       0.005927023959
 30      -0.023988830280
 31       0.061723858707
 32       0.034804403386
 33      -0.223440949618
 34      -0.000001988702
 35       0.013643607433
 36       0.006577973111
 37      -0.000000031633
 38      -0.000953034353
 39       0.000000086854
 40       0.000000173616
 41      -0.018978875407
 42       0.001710096230
 43       0.005928020583
 44      -0.023991412362
 45       0.061720889292
 46      -0.034788865022
 47       0.223445621126
 48       0.000002900900
 49      -0.013627521000
 50      -0.006577454133
 51       0.000000582124
 52      -0.000953079167
 53       0.000000101167
 54       0.000000118847
 55      -0.018978920677
 56       0.001709448520
 57      -0.003661920543
 58       0.014814699480
 59      -0.038116988686
 60      -0.010230794443
 61       0.254712997123
 62       0.000001942425
 63       0.044026841352
 64       0.066835237975
 65       0.000000359617
 66       0.000588616131
 67       0.000000101987
 68       0.000000098229
 69      -0.013051185982
 70       0.006154992079
 71      -0.002266799558
 72       0.009172979731
 73      -0.023620573012
 74       0.049597603019
 75      -0.260354097528
 76      -0.000001363479
 77       0.048370916430
 78      -0.080066343812
 79      -0.000000433388
 80       0.000364634525
 81       0.000000024468
 82       0.000000106934
 83      -0.012164241830
 84      -0.001199998410
 85      -0.090188796586
 86      -0.060524065640
 87      -0.004705114655
 88       0.003586802055
 89       0.000000060243
 90      -0.145586221183
 91      -0.097703259982
 92      -0.005587436673
 93      -0.002112374557
 94       0.000000034307
 95       0.235768000945
 96       0.158222705464
 97       0.000836463466
 98       0.006063802234
 99       0.000000055648
100       0.235771839964
101       0.158225016348
102      -0.000835150659
103      -0.006063982249
104      -0.000000016096
105      -0.145581865910
106      -0.097700481914
107       0.005586952475
108       0.002111905184
109       0.000000005552
110      -0.090181098195
111      -0.060517979443
112       0.004704687416
113      -0.003586218949
114      -0.000000036525
 Sym=     1a
 Ene= -2.95337847436902E-01
 Spin= Alpha
 Occup= 2.000000
  1      -0.005539959804
  2       0.022411545625
  3      -0.057653951034
  4       0.231989223464
  5       0.013478754529
  6      -0.000002290451
  7       0.013491337601
  8      -0.036412340850
  9      -0.000001006966
 10       0.000890432545
 11      -0.000000121724
 12       0.000000091352
 13      -0.005644493032
 14      -0.017299522006
 15       0.004733210719
 16      -0.019151322560
 17       0.049279110332
 18      -0.237632009243
 19      -0.052869916423
 20      -0.000000366090
 21      -0.026728895190
 22      -0.056047293175
 23      -0.000000924635
 24      -0.000761096911
 25      -0.000000164958
 26       0.000000111230
 27       0.001713480248
 28      -0.016413171605
 29       0.000805059544
 30      -0.003255851989
 31       0.008376157820
 32      -0.268912794711
 33      -0.028270575604
 34       0.000000226769
 35      -0.100122454829
 36       0.001651813033
 37       0.000000032231
 38      -0.000129485656
 39      -0.000000031739
 40       0.000000040524
 41      -0.002733921101
 42      -0.010484290554
 43       0.000805475567
 44      -0.003257823060
 45       0.008369284600
 46       0.268921708644
 47       0.028289940346
 48      -0.000001782539
 49       0.100126299084
 50      -0.001644736961
 51      -0.000000870815
 52      -0.000129315539
 53      -0.000000035212
 54       0.000000104850
 55      -0.002734440699
 56      -0.010484410717
 57       0.004732079345
 58      -0.019148149397
 59       0.049283986739
 60       0.237618060652
 61       0.052862137014
 62      -0.000000882587
 63       0.026727812139
 64       0.056048131428
 65       0.000000123922
 66      -0.000761095213
 67      -0.000000085047
 68       0.000000077075
 69       0.001714185682
 70      -0.016412821472
 71      -0.005538038890
 72       0.022406546266
 73      -0.057659981452
 74      -0.231983669363
 75      -0.013471042807
 76       0.000001022951
 77      -0.013493817661
 78       0.036420263418
 79       0.000000232098
 80       0.000890366919
 81      -0.000000048737
 82       0.000000121402
 83      -0.005644642840
 84      -0.017299463338
 85      -0.220179002335
 86      -0.147775335458
 87      -0.003830552775
 88      -0.004735126319
 89      -0.000000044779
 90       0.188191751206
 91       0.126308587126
 92       0.002355882098
 93      -0.005555649512
 94      -0.000000085676
 95       0.031978585160
 96       0.021459900467
 97      -0.005820565437
 98       0.000866508903
 99       0.000000014227
100       0.031990247688
101       0.021469217181
102       0.005820899184
103      -0.000866538872
104      -0.000000053607
105       0.188186720773
106       0.126305808766
107      -0.002355840591
108       0.005555276284
109       0.000000028094
110      -0.220173034905
111      -0.147772095366
112       0.003830016064
113       0.004735502239
114      -0.000000004309
 Sym=     1a
 Ene= -2.18772263438501E-01
 Spin= Alpha
 Occup= 2.000000
  1      -0.000000024931
  2       0.000000080202
  3      -0.000000151017
  4       0.000001991491
  5      -0.000002353378
  6       0.324833309237
  7       0.000001146377
  8      -0.000001661081
  9       0.216765148723
 10       0.000000109605
 11       0.001425894718
 12       0.009192757439
 13       0.000000059854
 14       0.000000007319
 15       0.000000043831
 16      -0.000000118284
 17       0.000000080569
 18       0.000001045208
 19      -0.000002254528
 20       0.282862368707
 21       0.000000889672
 22      -0.000001557866
 23       0.188757543497
 24      -0.000000147608
 25      -0.001283850668
 26      -0.012121236813
 27      -0.000000089004
 28      -0.000000076805
 29       0.000000047410
 30      -0.000000121506
 31       0.000000027944
 32      -0.000000282682
 33      -0.000000450482
 34       0.041977953030
 35      -0.000000055745
 36      -0.000000190361
 37       0.028012551537
 38       0.000000162953
 39      -0.018385542404
 40       0.000883049740
 41      -0.000000078568
 42       0.000000118939
 43      -0.000000049198
 44       0.000000117880
 45      -0.000000008430
 46       0.000000256055
 47       0.000000305511
 48      -0.041971475710
 49       0.000000067348
 50       0.000000273991
 51      -0.028009322503
 52       0.000000170679
 53      -0.018385597991
 54       0.000882762431
 55      -0.000000101451
 56       0.000000125247
 57      -0.000000056576
 58       0.000000101534
 59       0.000000094203
 60      -0.000000670032
 61       0.000002007208
 62      -0.282852272323
 63      -0.000000525246
 64       0.000001270816
 65      -0.188751318540
 66      -0.000000141910
 67      -0.001284077373
 68      -0.012121028013
 69      -0.000000089350
 70      -0.000000094320
 71       0.000000051469
 72      -0.000000087475
 73      -0.000000092808
 74      -0.000002274845
 75       0.000002244168
 76      -0.324824382672
 77      -0.000001432827
 78       0.000001456615
 79      -0.216759985505
 80       0.000000102053
 81       0.001425782579
 82       0.009192446765
 83       0.000000061961
 84      -0.000000013110
 85      -0.000000292892
 86      -0.000000256048
 87       0.000000056208
 88      -0.000000080708
 89       0.010741882546
 90       0.000000252893
 91       0.000000225918
 92       0.000000044341
 93      -0.000000076971
 94       0.009353944479
 95       0.000000035159
 96       0.000000065992
 97       0.000000002849
 98      -0.000000012497
 99       0.001388268869
100       0.000000077987
101       0.000000025742
102       0.000000001156
103       0.000000009113
104      -0.001387916653
105       0.000000343047
106       0.000000231904
107      -0.000000032986
108       0.000000061951
109      -0.009353643083
110      -0.000000386531
111      -0.000000265761
112      -0.000000064221
113       0.000000074118
114      -0.010741598901
 Sym=     1a
 Ene= -2.18767953816836E-01
 Spin= Alpha
 Occup= 2.000000
  1       0.000000041522
  2      -0.000000094558
  3       0.000000096524
  4       0.000000571561
  5      -0.000000637307
  6       0.139067104629
  7       0.000000496079
  8      -0.000000471234
  9       0.092806544797
 10      -0.000000264268
 11       0.010555330719
 12      -0.013589275976
 13      -0.000000074687
 14      -0.000000155750
 15      -0.000000027218
 16       0.000000076338
 17      -0.000000206243
 18      -0.000001072532
 19       0.000001224425
 20      -0.211771224971
 21      -0.000000858221
 22       0.000000966783
 23      -0.141323612903
 24      -0.000000048671
 25      -0.010756363082
 26      -0.010878543617
 27      -0.000000151957
 28       0.000000040093
 29      -0.000000051356
 30       0.000000093029
 31      -0.000000011683
 32       0.000001724777
 33      -0.000003215637
 34       0.350844650813
 35       0.000001115117
 36      -0.000002138987
 37       0.234132496356
 38       0.000000060454
 39       0.002246258963
 40       0.006223602275
 41       0.000000012486
 42       0.000000022859
 43       0.000000037478
 44      -0.000000115565
 45       0.000000215150
 46      -0.000001777476
 47       0.000003027481
 48      -0.350847503143
 49      -0.000001207571
 50       0.000001757009
 51      -0.234134095927
 52       0.000000061144
 53       0.002246344472
 54       0.006223670852
 55       0.000000019461
 56       0.000000009043
 57       0.000000035760
 58      -0.000000060782
 59       0.000000074987
 60       0.000000828176
 61      -0.000000958351
 62       0.211767912339
 63       0.000000458077
 64      -0.000000729550
 65       0.141320977593
 66      -0.000000048836
 67      -0.010756324958
 68      -0.010878688448
 69      -0.000000162125
 70       0.000000039376
 71      -0.000000030988
 72       0.000000095283
 73      -0.000000198449
 74      -0.000000774391
 75       0.000000483221
 76      -0.139070695696
 77      -0.000000411040
 78       0.000000516144
 79      -0.092807671835
 80      -0.000000262820
 81       0.010555502949
 82      -0.013589247808
 83      -0.000000068034
 84      -0.000000145051
 85      -0.000000140228
 86      -0.000000073569
 87       0.000000019426
 88      -0.000000028873
 89       0.004598698215
 90      -0.000000179498
 91      -0.000000166381
 92      -0.000000039359
 93       0.000000047391
 94      -0.007003109206
 95       0.000000364672
 96       0.000000251980
 97       0.000000054926
 98      -0.000000097979
 99       0.011602212598
100       0.000000345890
101       0.000000296578
102      -0.000000059203
103       0.000000088331
104      -0.011602297009
105      -0.000000228011
106      -0.000000150155
107       0.000000026107
108      -0.000000044469
109       0.007003020826
110      -0.000000148125
111      -0.000000146316
112      -0.000000026776
113       0.000000028043
114      -0.004598890463
 Sym=     1a
 Ene= -3.19269363327825E-02
 Spin= Alpha
 Occup= 0.000000
  1      -0.000000010034
  2       0.000000010842
  3       0.000000235699
  4      -0.000000711911
  5       0.000000884431
  6      -0.136261768851
  7      -0.000000813980
  8       0.000001048024
  9      -0.168524791244
 10      -0.000000423858
 11       0.016179431657
 12      -0.022506079237
 13      -0.000000116758
 14      -0.000000248002
 15      -0.000000032909
 16       0.000000085145
 17       0.000000279923
 18      -0.000001226332
 19       0.000001709035
 20      -0.243877008772
 21      -0.000001556615
 22       0.000002149536
 23      -0.301627254561
 24       0.000000088312
 25       0.016122750565
 26       0.016979818842
 27       0.000000217523
 28      -0.000000035891
 29      -0.000000046200
 30       0.000000069716
 31       0.000000284055
 32       0.000001752034
 33      -0.000003293745
 34       0.380145271369
 35       0.000002209319
 36      -0.000004115431
 37       0.470168840585
 38      -0.000000065252
 39      -0.004813942403
 40      -0.008233744688
 41      -0.000000046495
 42      -0.000000011577
 43      -0.000000052633
 44       0.000000153185
 45       0.000000310823
 46       0.000001982878
 47      -0.000003050880
 48       0.380142663949
 49       0.000002487454
 50      -0.000003667882
 51       0.470165001280
 52       0.000000072831
 53       0.004814001154
 54       0.008233607406
 55       0.000000074723
 56       0.000000002476
 57      -0.000000035592
 58       0.000000050191
 59       0.000000206584
 60      -0.000000831539
 61       0.000001554095
 62      -0.243882379914
 63      -0.000001123990
 64       0.000001679111
 65      -0.301632416626
 66      -0.000000079457
 67      -0.016123075697
 68      -0.016980164532
 69      -0.000000228597
 70       0.000000049375
 71      -0.000000004233
 72       0.000000023720
 73       0.000000215142
 74      -0.000000782428
 75       0.000000850819
 76      -0.136261144322
 77      -0.000000873520
 78       0.000000814482
 79      -0.168522019782
 80       0.000000429907
 81      -0.016179537036
 82       0.022506515024
 83       0.000000094017
 84       0.000000210583
 85      -0.000000159197
 86      -0.000000329736
 87      -0.000000023452
 88       0.000000038074
 89      -0.006403873114
 90      -0.000000009354
 91      -0.000000117359
 92      -0.000000058931
 93       0.000000079871
 94      -0.011461060593
 95      -0.000000355393
 96      -0.000000588994
 97       0.000000089401
 98      -0.000000147435
 99       0.017865999298
100       0.000000043507
101      -0.000000076320
102       0.000000089374
103      -0.000000140127
104       0.017865750537
105      -0.000000263586
106      -0.000000444732
107      -0.000000053513
108       0.000000059506
109      -0.011461245358
110       0.000000004282
111      -0.000000112152
112      -0.000000030714
113       0.000000022728
114      -0.006403545362
 Sym=     1a
 Ene= -3.19172297702974E-02
 Spin= Alpha
 Occup= 0.000000
  1       0.000000029016
  2      -0.000000093045
  3      -0.000000420830
  4      -0.000001970527
  5       0.000002673894
  6      -0.360275592085
  7      -0.000002449503
  8       0.000003254783
  9      -0.445615502905
 10       0.000000148956
 11       0.001671314868
 12       0.012933223065
 13       0.000000105218
 14       0.000000047088
 15       0.000000071859
 16      -0.000000202794
 17      -0.000000182142
 18       0.000001339130
 19      -0.000002292091
 20       0.298141767902
 21       0.000001809669
 22      -0.000002998683
 23       0.368769212497
 24       0.000000211591
 25       0.003854444790
 26       0.019371006788
 27       0.000000169828
 28       0.000000070485
 29       0.000000032250
 30      -0.000000096716
 31      -0.000000175846
 32       0.000000235628
 33      -0.000000528761
 34       0.062132437154
 35       0.000000109282
 36      -0.000000575530
 37       0.076848189016
 38      -0.000000265927
 39       0.029067457467
 40      -0.001567342958
 41       0.000000104005
 42      -0.000000203833
 43       0.000000023637
 44      -0.000000056449
 45      -0.000000404462
 46       0.000000194907
 47      -0.000000521387
 48       0.062136040944
 49       0.000000114035
 50      -0.000000578249
 51       0.076857115361
 52       0.000000268635
 53      -0.029067324477
 54       0.001567637216
 55      -0.000000167471
 56       0.000000206674
 57       0.000000063096
 58      -0.000000121641
 59      -0.000000410352
 60       0.000001018118
 61      -0.000001927864
 62       0.298147734443
 63       0.000001140611
 64      -0.000002475117
 65       0.368775512983
 66      -0.000000211908
 67      -0.003854363421
 68      -0.019371260583
 69      -0.000000156013
 70      -0.000000107573
 71       0.000000043155
 72      -0.000000063011
 73      -0.000000273125
 74      -0.000002231949
 75       0.000002345850
 76      -0.360280419642
 77      -0.000002884334
 78       0.000003002328
 79      -0.445621846547
 80      -0.000000147739
 81      -0.001671533942
 82      -0.012933252806
 83      -0.000000088837
 84      -0.000000008331
 85      -0.000000066089
 86       0.000000054261
 87      -0.000000093032
 88       0.000000126140
 89      -0.016931480161
 90       0.000000046438
 91       0.000000250135
 92       0.000000064586
 93      -0.000000107070
 94       0.014011841607
 95       0.000000094701
 96       0.000000318689
 97      -0.000000007764
 98      -0.000000029992
 99       0.002919750916
100       0.000000160992
101       0.000000387123
102       0.000000002162
103      -0.000000016707
104       0.002920521404
105       0.000000367424
106       0.000000659003
107       0.000000044743
108      -0.000000110175
109       0.014012083304
110       0.000000369300
111       0.000000668688
112      -0.000000100893
113       0.000000123447
114      -0.016931816995
 Sym=     1a
 Ene= 3.59999317707584E-02
 Spin= Alpha
 Occup= 0.000000
  1       0.044353674646
  2      -0.103969348808
  3      -0.497852362268
  4       0.103411113535
  5       0.058683306971
  6       0.000000506368
  7       0.230676436553
  8       0.130903954560
  9       0.000000409431
 10      -0.003057915278
 11       0.000000032820
 12      -0.000000133570
 13       0.009046660821
 14       0.015146073391
 15       0.044355370334
 16      -0.103973534106
 17      -0.497823412537
 18       0.102529374411
 19      -0.060206461554
 20      -0.000001714363
 21       0.228744462005
 22      -0.134334884805
 23      -0.000003100114
 24      -0.003058656119
 25      -0.000000160209
 26       0.000000035514
 27       0.008593383038
 28      -0.015407891670
 29       0.044356313012
 30      -0.103971107059
 31      -0.497870300680
 32       0.000880746876
 33       0.118882726776
 34       0.000000675423
 35       0.001970950705
 36       0.265208115213
 37       0.000002197989
 38      -0.003059684328
 39       0.000000036865
 40       0.000000185771
 41      -0.017641782729
 42       0.000261774477
 43       0.044355973064
 44      -0.103969789621
 45      -0.497869789129
 46      -0.000883843485
 47      -0.118881781284
 48      -0.000000327644
 49      -0.001952709344
 50      -0.265201222178
 51      -0.000001424124
 52      -0.003059617374
 53       0.000000088875
 54       0.000000192378
 55      -0.017641514874
 56       0.000261042966
 57       0.044355544251
 58      -0.103974798004
 59      -0.497862540261
 60      -0.102537339080
 61       0.060208385334
 62       0.000000926068
 63      -0.228750611920
 64       0.134339415158
 65       0.000001395736
 66      -0.003058607703
 67      -0.000000167648
 68       0.000000046411
 69       0.008593967609
 70      -0.015408976097
 71       0.044354445561
 72      -0.103972170819
 73      -0.497867559589
 74      -0.103417754209
 75      -0.058682163634
 76      -0.000000056622
 77      -0.230683921595
 78      -0.130920268090
 79       0.000000530664
 80      -0.003058005041
 81       0.000000013284
 82      -0.000000091497
 83       0.009046809098
 84       0.015146972445
 85       0.080887065765
 86       0.732773291940
 87      -0.006048097475
 88      -0.003432359528
 89       0.000000040902
 90       0.080887648032
 91       0.732803927014
 92      -0.005996475728
 93       0.003521803449
 94       0.000000012815
 95       0.080888591381
 96       0.732759679450
 97      -0.000051766009
 98      -0.006955538022
 99      -0.000000073429
100       0.080887080915
101       0.732749759824
102       0.000051193833
103       0.006955474828
104       0.000000085410
105       0.080892680062
106       0.732838831793
107       0.005996689886
108      -0.003521882186
109      -0.000000041266
110       0.080891173870
111       0.732803129587
112       0.006048168068
113       0.003432667968
114      -0.000000024613
 Sym=     1a
 Ene= 7.65959896516069E-02
 Spin= Alpha
 Occup= 0.000000
  1      -0.031051827313
  2       0.072906464881
  3       0.643903680361
  4      -0.151529382919
  5      -0.070677032230
  6       0.000000843541
  7      -0.311019749022
  8      -0.253312979725
  9       0.000000639805
 10      -0.000255291061
 11      -0.000000083359
 12       0.000000028060
 13       0.000117982553
 14      -0.008725607798
 15      -0.039918806786
 16       0.093723606319
 17       0.827472134293
 18      -0.187789347318
 19       0.103246601097
 20       0.000001125200
 21      -0.423104784067
 22       0.283735165497
 23       0.000003301644
 24      -0.000326723959
 25       0.000000102886
 26      -0.000000038326
 27      -0.002831951989
 28       0.009353953085
 29       0.008855727575
 30      -0.020791405524
 31      -0.183708735198
 32      -0.019031470024
 33       0.047675120130
 34       0.000000035231
 35       0.098042498219
 36       0.112038172016
 37       0.000000054833
 38       0.000072839713
 39       0.000000042618
 40      -0.000000004552
 41      -0.002020347531
 42       0.006687565219
 43      -0.008857334288
 44       0.020794067072
 45       0.183755609068
 46      -0.019030888563
 47       0.047682102249
 48       0.000000961224
 49       0.098042273652
 50       0.112058805109
 51       0.000000955509
 52      -0.000072922551
 53      -0.000000046938
 54       0.000000032874
 55       0.002020697625
 56      -0.006687086221
 57       0.039916662001
 58      -0.093718680878
 59      -0.827469566823
 60      -0.187789880974
 61       0.103248264411
 62       0.000001711603
 63      -0.423099224796
 64       0.283736032965
 65       0.000003423017
 66       0.000326934377
 67      -0.000000065184
 68       0.000000019655
 69       0.002831907056
 70      -0.009353983398
 71       0.031052518523
 72      -0.072908603254
 73      -0.643906807741
 74      -0.151527650317
 75      -0.070676812872
 76       0.000000044350
 77      -0.311013460478
 78      -0.253324990720
 79       0.000000011968
 80       0.000255200635
 81       0.000000050230
 82      -0.000000040246
 83      -0.000118659565
 84       0.008725500636
 85      -0.041846157444
 86      -0.909430087578
 87       0.004323473441
 88       0.002137796039
 89       0.000000026724
 90      -0.053789531591
 91      -1.169006149276
 92       0.005399361027
 93      -0.003026586884
 94      -0.000000088629
 95       0.011932196182
 96       0.259353157281
 97       0.000389499185
 98      -0.001376373099
 99      -0.000000038906
100      -0.011934719561
101      -0.259404885240
102       0.000389875857
103      -0.001376699326
104       0.000000014470
105       0.053789333550
106       1.168995784407
107       0.005399339924
108      -0.003026452899
109      -0.000000016853
110       0.041845228079
111       0.909426612287
112       0.004323235412
113       0.002138086467
114      -0.000000032861
 Sym=     1a
 Ene= 7.65981190243332E-02
 Spin= Alpha
 Occup= 0.000000
  1      -0.028164678808
  2       0.066120906106
  3       0.583785990202
  4      -0.124191585388
  5      -0.087363101057
  6      -0.000000046019
  7      -0.348436907978
  8      -0.112993347193
  9       0.000001194856
 10      -0.000230434962
 11       0.000000002921
 12       0.000000083825
 13      -0.007785550852
 14      -0.003194625472
 15       0.012821000121
 16      -0.030096978257
 17      -0.265691214235
 18       0.049750721026
 19      -0.051105713657
 20      -0.000000471923
 21       0.188830247019
 22      -0.001056024284
 23      -0.000000714348
 24       0.000104552635
 25      -0.000000041991
 26      -0.000000063557
 27       0.007156134982
 28       0.000482635588
 29      -0.040971628025
 30       0.096188406476
 31       0.849600815811
 32      -0.005820377432
 33      -0.219854489047
 34      -0.000001817885
 35       0.017124814610
 36      -0.521982161667
 37      -0.000004856120
 38      -0.000335385824
 39      -0.000000042204
 40      -0.000000073104
 41       0.009824460927
 42       0.001293342923
 43       0.040971784681
 44      -0.096188858614
 45      -0.849591907426
 46      -0.005822238324
 47      -0.219852786956
 48      -0.000001907149
 49       0.017158865353
 50      -0.521979100849
 51      -0.000004667094
 52       0.000335342301
 53       0.000000048132
 54       0.000000061253
 55      -0.009824262471
 56      -0.001294379658
 57      -0.012818291761
 58       0.030090282939
 59       0.265679397074
 60       0.049752223699
 61      -0.051105927429
 62      -0.000000615330
 63       0.188811724723
 64      -0.001070570027
 65      -0.000000677982
 66      -0.000104786565
 67       0.000000034932
 68       0.000000073694
 69      -0.007157271473
 70      -0.000482702810
 71       0.028161652235
 72      -0.066113246095
 73      -0.583781253552
 74      -0.124193875293
 75      -0.087364418248
 76       0.000000371728
 77      -0.348417400416
 78      -0.113015433824
 79       0.000001767553
 80       0.000230718652
 81      -0.000000004407
 82      -0.000000082527
 83       0.007786226614
 84       0.003195007028
 85      -0.037947013910
 86      -0.824780470767
 87       0.003647093805
 88       0.002418306436
 89      -0.000000001741
 90       0.017273742563
 91       0.375444040063
 92      -0.001515219438
 93       0.001342052347
 94       0.000000027896
 95      -0.055210053394
 96      -1.199908737240
 97       0.000134295586
 98       0.006353874990
 99       0.000000054952
100       0.055209258926
101       1.199898522409
102       0.000133051655
103       0.006353786755
104       0.000000029945
105      -0.017274362440
106      -0.375430562183
107      -0.001515391230
108       0.001341670258
109       0.000000006875
110       0.037948334779
111       0.824774441574
112       0.003647107781
113       0.002418368928
114       0.000000005085
 Sym=     1a
 Ene= 1.07525209325430E-01
 Spin= Alpha
 Occup= 0.000000
  1       0.000000067092
  2      -0.000000222626
  3      -0.000000985593
  4       0.000001525231
  5      -0.000002228455
  6       0.307547318417
  7       0.000002606454
  8      -0.000003403471
  9       0.533633027440
 10       0.000000017785
 11      -0.012615237614
 12      -0.007159962786
 13      -0.000000105993
 14       0.000000056833
 15       0.000000032418
 16      -0.000000190959
 17      -0.000000494690
 18      -0.000001532526
 19       0.000002220848
 20      -0.307545716122
 21      -0.000002542826
 22       0.000003604994
 23      -0.533632010418
 24      -0.000000187954
 25       0.012508229784
 26      -0.007346651475
 27       0.000000012602
 28      -0.000000129331
 29      -0.000000069503
 30       0.000000144716
 31       0.000001927844
 32      -0.000001590764
 33       0.000002092125
 34      -0.307538097436
 35      -0.000003342962
 36       0.000003211631
 37      -0.533616733580
 38       0.000000189119
 39       0.000107143937
 40       0.014507010500
 41       0.000000078153
 42       0.000000082513
 43      -0.000000018125
 44      -0.000000046979
 45       0.000000572707
 46       0.000001484037
 47      -0.000002215062
 48       0.307539923793
 49       0.000002114975
 50      -0.000003758646
 51       0.533619981362
 52       0.000000204232
 53       0.000107657040
 54       0.014506892616
 55       0.000000089428
 56       0.000000063903
 57      -0.000000104894
 58       0.000000242997
 59       0.000002925666
 60       0.000001696638
 61      -0.000002376764
 62       0.307541031768
 63       0.000003438431
 64      -0.000004443845
 65       0.533623918010
 66      -0.000000190103
 67       0.012508163784
 68      -0.007346439857
 69       0.000000028908
 70      -0.000000164726
 71      -0.000000013188
 72      -0.000000009494
 73       0.000001404755
 74      -0.000001474034
 75       0.000002319709
 76      -0.307544653261
 77      -0.000002641887
 78       0.000004480374
 79      -0.533629145496
 80       0.000000028715
 81      -0.012615629628
 82      -0.007159542076
 83      -0.000000105394
 84       0.000000087941
 85       0.000000175368
 86       0.000000362870
 87       0.000000098098
 88      -0.000000136400
 89       0.020031865118
 90      -0.000000006565
 91       0.000000411384
 92      -0.000000099495
 93       0.000000143394
 94      -0.020032255951
 95       0.000000403030
 96      -0.000002767663
 97      -0.000000111843
 98       0.000000172448
 99      -0.020032867832
100       0.000000119979
101      -0.000000879312
102       0.000000091938
103      -0.000000159104
104       0.020032877963
105       0.000000541811
106      -0.000003798064
107       0.000000070731
108      -0.000000127558
109       0.020031917029
110       0.000000451242
111      -0.000001954255
112      -0.000000123855
113       0.000000143715
114      -0.020031808997
 Sym=     1a
 Ene= 1.13178851372806E-01
 Spin= Alpha
 Occup= 0.000000
  1       0.070779312529
  2      -0.164914935553
  3      -1.190519492822
  4       0.108730646692
  5       0.014145053590
  6      -0.000000612766
  7       0.491076103139
  8       0.051782473679
  9      -0.000002472520
 10      -0.002691270604
 11       0.000000006911
 12       0.000000124351
 13      -0.008914170342
 14      -0.003525768464
 15      -0.082426198890
 16       0.192048222789
 17       1.386452146688
 18      -0.115136042245
 19       0.037472268206
 20       0.000000951621
 21      -0.517350059516
 22       0.160036682405
 23       0.000004118146
 24       0.003134136370
 25      -0.000000056562
 26      -0.000000064329
 27       0.007520244009
 28      -0.005937658277
 29       0.011655543372
 30      -0.027155968066
 31      -0.195925186277
 32      -0.067252350568
 33       0.017224030191
 34       0.000000602870
 35      -0.321118953062
 36       0.076977133602
 37       0.000002247070
 38      -0.000443917532
 39       0.000000068821
 40      -0.000000038711
 41       0.001391233030
 42       0.009499768762
 43       0.011643366412
 44      -0.027130155087
 45      -0.195939386988
 46       0.067249963266
 47      -0.017211358787
 48      -0.000000550581
 49       0.321125560554
 50      -0.076807500371
 51      -0.000002525570
 52      -0.000442386558
 53       0.000000062119
 54      -0.000000072793
 55       0.001390650389
 56       0.009499629498
 57      -0.082441341909
 58       0.192085434058
 59       1.386434863870
 60       0.115152926198
 61      -0.037479978864
 62      -0.000000615978
 63       0.517507624752
 64      -0.160134661284
 65      -0.000003027914
 66       0.003135656969
 67      -0.000000068087
 68      -0.000000054077
 69       0.007521035494
 70      -0.005939024684
 71       0.070793515372
 72      -0.164948508358
 73      -1.190514053802
 74      -0.108747361664
 75      -0.014152400390
 76       0.000000751845
 77      -0.491227472426
 78      -0.051885937338
 79       0.000002642798
 80      -0.002692797730
 81      -0.000000013811
 82       0.000000105376
 83      -0.008915007249
 84      -0.003526310005
 85       0.022051915427
 86       1.117712627149
 87       0.000138704188
 88      -0.008182495520
 89      -0.000000069176
 90      -0.025686191917
 91      -1.301674432888
 92       0.001646376043
 93      -0.006206110957
 94      -0.000000048028
 95       0.003645574410
 96       0.184068936854
 97      -0.011702239365
 98      -0.000559231562
 99       0.000000048123
100       0.003623741610
101       0.183881832264
102       0.011701996154
103       0.000558092449
104      -0.000000068626
105      -0.025697920244
106      -1.301899653714
107      -0.001647504066
108       0.006207081212
109       0.000000023953
110       0.022068592003
111       1.117938514097
112      -0.000137928755
113       0.008184045414
114       0.000000046206
 Sym=     1a
 Ene= 1.13189636365754E-01
 Spin= Alpha
 Occup= 0.000000
  1       0.054321712118
  2      -0.126568150658
  3      -0.913649476099
  4       0.041175570719
  5       0.085353071843
  6       0.000000263644
  7       0.175109775069
  8       0.395257900161
  9       0.000001947044
 10      -0.002066293264
 11      -0.000000111723
 12       0.000000043621
 13       0.003548914147
 14      -0.008911211807
 15       0.034141911991
 16      -0.079550791679
 17      -0.574261726010
 18       0.010442888307
 19      -0.078943949822
 20      -0.000000538533
 21       0.036472475407
 22      -0.368958005993
 23      -0.000002775936
 24      -0.001298625143
 25       0.000000010616
 26      -0.000000060068
 27       0.005961523480
 28       0.007521084890
 29      -0.088469186968
 30       0.206136532361
 31       1.487925706765
 32      -0.009815030548
 33      -0.126846719728
 34      -0.000001059593
 35      -0.046576784459
 36      -0.565361473457
 37      -0.000004476519
 38       0.003365254492
 39       0.000000083352
 40       0.000000007922
 41      -0.009474919155
 42       0.001393644378
 43      -0.088465925011
 44       0.206128147884
 45       1.487937203873
 46       0.009811647209
 47       0.126843337159
 48       0.000000858491
 49       0.046535530547
 50       0.565325543978
 51       0.000003774589
 52       0.003364950203
 53       0.000000088745
 54       0.000000010334
 55      -0.009474513893
 56       0.001394663788
 57       0.034144363360
 58      -0.079557048784
 59      -0.574222622057
 60      -0.010439506319
 61       0.078948603307
 62       0.000000413970
 63      -0.036505502006
 64       0.368958815867
 65       0.000002378513
 66      -0.001298948269
 67       0.000000020568
 68      -0.000000056107
 69       0.005960862156
 70       0.007521672250
 71       0.054319120263
 72      -0.126563366649
 73      -0.913612343122
 74      -0.041167549407
 75      -0.085354107964
 76      -0.000000168948
 77      -0.175070452930
 78      -0.395238942511
 79      -0.000001290149
 80      -0.002065994055
 81      -0.000000092081
 82       0.000000052618
 83       0.003548228225
 84      -0.008911528916
 85       0.016934792081
 86       0.857783597014
 87      -0.007237732727
 88       0.006657474461
 89       0.000000089481
 90       0.010638747579
 91       0.539101333724
 92      -0.007152181799
 93      -0.008443793798
 94      -0.000000020730
 95      -0.027581755215
 96      -1.396961260829
 97      -0.001503140153
 98       0.004913322408
 99       0.000000066187
100      -0.027580549586
101      -1.396915005958
102       0.001504692089
103      -0.004912972081
104      -0.000000057892
105       0.010638297042
106       0.539116238836
107       0.007152210249
108       0.008443512733
109       0.000000030316
110       0.016925423282
111       0.857717511478
112       0.007237148730
113      -0.006656955382
114      -0.000000082994
 Sym=     1a
 Ene= 1.31961196099601E-01
 Spin= Alpha
 Occup= 0.000000
  1       0.069326732557
  2      -0.164059732494
  3       0.046701818420
  4       0.069428983890
  5       0.039393409233
  6      -0.000000128810
  7       0.779244173916
  8       0.442239168973
  9      -0.000000713269
 10      -0.007379699370
 11      -0.000000105072
 12       0.000000133418
 13      -0.002744411289
 14      -0.004591803483
 15      -0.069326699932
 16       0.164059009867
 17      -0.046680427559
 18      -0.068819739505
 19       0.040423273364
 20       0.000000691167
 21      -0.772589245148
 22       0.453759422519
 23       0.000007175809
 24       0.007379798906
 25       0.000000001867
 26      -0.000000082191
 27       0.002607862707
 28      -0.004671966082
 29      -0.069325793767
 30       0.164062756531
 31      -0.046670923805
 32      -0.000599944884
 33      -0.079829116881
 34      -0.000000844313
 35      -0.006698458674
 36      -0.895946455076
 37      -0.000007117007
 38       0.007380564910
 39       0.000000082464
 40      -0.000000092688
 41      -0.005344063266
 42       0.000078849546
 43       0.069330774298
 44      -0.164072926363
 45       0.046565271336
 46      -0.000584967268
 47      -0.079839886462
 48      -0.000000630037
 49      -0.006608776974
 50      -0.895984903513
 51      -0.000006792429
 52      -0.007380642004
 53      -0.000000097224
 54       0.000000080717
 55       0.005344548018
 56      -0.000078429677
 57       0.069311602922
 58      -0.164025589866
 59       0.047015569492
 60      -0.068792945307
 61       0.040410675409
 62       0.000000281100
 63      -0.772483590482
 64       0.453701662635
 65       0.000006354959
 66      -0.007379558612
 67       0.000000024451
 68       0.000000066568
 69      -0.002607105480
 70       0.004670805303
 71      -0.069316504304
 72       0.164038226589
 73      -0.046928464753
 74       0.069405588883
 75       0.039392846180
 76      -0.000000326237
 77       0.779152874307
 78       0.442243815511
 79      -0.000001272431
 80       0.007379547483
 81       0.000000114084
 82      -0.000000111270
 83       0.002743590826
 84       0.004591207801
 85       0.071509799378
 86       1.120746567640
 87      -0.006284549295
 88      -0.003567479239
 89       0.000000014324
 90      -0.071508428778
 91      -1.120738370783
 92       0.006230220295
 93      -0.003659936259
 94      -0.000000046574
 95      -0.071527366680
 96      -1.120731651871
 97       0.000053142857
 98       0.007230008625
 99       0.000000068909
100       0.071529536626
101       1.120830475887
102       0.000054606475
103       0.007230330940
104       0.000000067474
105       0.071501110686
106       1.120430845746
107       0.006229617072
108      -0.003659205236
109      -0.000000038513
110      -0.071505006222
111      -1.120541366390
112      -0.006284599341
113      -0.003566107330
114       0.000000021364
 Sym=     1a
 Ene= 2.53548399383490E-01
 Spin= Alpha
 Occup= 0.000000
  1      -0.016627100028
  2       0.041477323746
  3       0.495814362557
  4       0.066124016449
  5      -0.030748598950
  6      -0.000000583872
  7       0.724749242338
  8      -0.779026600867
  9      -0.000009254768
 10       0.001790168622
 11       0.000000335291
 12       0.000000125124
 13      -0.035017583400
 14       0.022366401515
 15      -0.078469337181
 16       0.195820695794
 17       2.339172639096
 18       0.191605574664
 19      -0.068129717020
 20      -0.000001418843
 21       1.337775392262
 22      -0.012537039228
 23      -0.000006503436
 24       0.008440718148
 25       0.000000038592
 26       0.000000136374
 27      -0.020501226047
 28      -0.018136675664
 29       0.095112418615
 30      -0.237385855418
 31      -2.834876692307
 32      -0.022990523991
 33      -0.241928218166
 34      -0.000001970493
 35      -0.379454909265
 36      -1.403115237050
 37      -0.000008904512
 38      -0.010228331736
 39      -0.000000021195
 40      -0.000000021160
 41       0.007307198583
 42       0.014692003646
 43       0.095116671673
 44      -0.237396538643
 45      -2.835067655409
 46       0.022961755649
 47       0.241936329512
 48       0.000001829589
 49       0.379278705390
 50       1.403107590236
 51       0.000009041793
 52      -0.010228744174
 53      -0.000000010984
 54       0.000000000840
 55       0.007312510014
 56       0.014689917353
 57      -0.078475974555
 58       0.195840872496
 59       2.339506311849
 60      -0.191606180019
 61       0.068157112444
 62       0.000001075492
 63      -1.337780726680
 64       0.012626540608
 65       0.000006026636
 66       0.008441456971
 67       0.000000061664
 68       0.000000124511
 69      -0.020497909968
 70      -0.018141945162
 71      -0.016627920983
 72       0.041484419606
 73       0.495848955358
 74      -0.066142206956
 75       0.030779716519
 76       0.000000618294
 77      -0.724862835474
 78       0.779271319835
 79       0.000009511570
 80       0.001789536023
 81       0.000000357173
 82       0.000000138267
 83      -0.035021419627
 84       0.022370521159
 85       0.002361197345
 86       0.102230590726
 87       0.014427311461
 88      -0.026003070306
 89      -0.000000252648
 90       0.011128105021
 91       0.482297988619
 92       0.008539239171
 93       0.017186861829
 94       0.000000087941
 95      -0.013464384823
 96      -0.584711878228
 97      -0.010584569200
 98       0.001703087396
 99       0.000000092186
100      -0.013492424974
101      -0.584638675403
102       0.010582208248
103      -0.001704540021
104      -0.000000068926
105       0.011155539802
106       0.482260694027
107      -0.008537384306
108      -0.017187820407
109      -0.000000058188
110       0.002378527623
111       0.102171055470
112      -0.014428741377
113       0.026006824920
114       0.000000268283
 Sym=     1a
 Ene= 2.53553330079536E-01
 Spin= Alpha
 Occup= 0.000000
  1       0.100221155532
  2      -0.250121897841
  3      -2.987526115616
  4      -0.217010962410
  5      -0.134413799066
  6       0.000000166551
  7      -1.203661289684
  8      -0.880418289152
  9      -0.000000523086
 10      -0.010779490558
 11      -0.000000051398
 12       0.000000227661
 13      -0.009745509096
 14      -0.002882970907
 15      -0.064514162328
 16       0.161004066246
 17       1.922945464160
 18       0.118045822849
 19      -0.123222398499
 20      -0.000001491941
 21       0.411831288573
 22      -1.181976718794
 23      -0.000010701783
 24       0.006939588171
 25       0.000000000929
 26      -0.000000383129
 27       0.030738747014
 28       0.011649580614
 29      -0.035710168771
 30       0.089124524917
 31       1.064473593392
 32      -0.055740219028
 33       0.091308451879
 34       0.000001035362
 35      -0.978796626959
 36       0.535052225666
 37       0.000008911501
 38       0.003840512539
 39       0.000000327890
 40      -0.000000222157
 41      -0.002081191749
 42       0.039455706218
 43      -0.035699769758
 44       0.089088960160
 45       1.064074354666
 46       0.055702872240
 47      -0.091288238340
 48      -0.000001035520
 49       0.978554232174
 50      -0.535051147421
 51      -0.000008854344
 52       0.003840467296
 53       0.000000326013
 54      -0.000000217830
 55      -0.002069233012
 56       0.039450938027
 57      -0.064524724549
 58       0.161031684237
 59       1.923475121441
 60      -0.118048820675
 61       0.123261762181
 62       0.000001171160
 63      -0.411776379831
 64       1.182228493737
 65       0.000010272117
 66       0.006940924308
 67       0.000000001735
 68      -0.000000386247
 69       0.030748529632
 70       0.011642927632
 71       0.100222155601
 72      -0.250129357208
 73      -2.987590442823
 74       0.216972547010
 75       0.134487173314
 76      -0.000000479546
 77       1.203459112541
 78       0.880850451320
 79      -0.000000233830
 80      -0.010779087089
 81      -0.000000049820
 82       0.000000239988
 83      -0.009752263904
 84      -0.002879570903
 85      -0.014211327232
 86      -0.615989329651
 87       0.003920771863
 88      -0.003443330900
 89      -0.000000057099
 90       0.009101524995
 91       0.396652550637
 92      -0.012735477994
 93      -0.019521103301
 94      -0.000000088249
 95       0.005091093137
 96       0.219400672229
 97      -0.028228938680
 98      -0.000401948878
 99       0.000000127859
100       0.005021258966
101       0.219554101495
102       0.028225859231
103       0.000398271977
104      -0.000000129016
105       0.009146280845
106       0.396595885404
107       0.012740457838
108       0.019523069176
109       0.000000099275
110      -0.014215268367
111      -0.616008061957
112      -0.003924228092
113       0.003448406024
114       0.000000070382
 Sym=     1a
 Ene= 2.65515088160225E-01
 Spin= Alpha
 Occup= 0.000000
  1       0.038402235941
  2      -0.074701287837
  3      -2.164325125170
  4      -0.123880173682
  5       0.050539346814
  6       0.000001039292
  7      -0.523973301519
  8       0.463445356892
  9       0.000006102984
 10      -0.008224575879
 11      -0.000000301228
 12       0.000000425169
 13      -0.014024729549
 14      -0.043088136768
 15       0.030649773979
 16      -0.059629204387
 17      -1.727033073962
 18      -0.164339093678
 19      -0.149328531044
 20      -0.000000306156
 21      -0.832248742712
 22      -1.059343674247
 23      -0.000003994146
 24      -0.006563050070
 25       0.000000234083
 26      -0.000000129601
 27       0.000538394084
 28       0.040671558720
 29       0.007758316636
 30      -0.015085186803
 31      -0.437312949318
 32      -0.317138446955
 33      -0.014371192383
 34       0.000001531513
 35      -1.996848747851
 36      -0.031054226284
 37       0.000009528653
 38      -0.001663490074
 39       0.000000141085
 40      -0.000000216968
 41       0.009374958570
 42       0.030204725816
 43      -0.007760855825
 44       0.015100398096
 45       0.437328854985
 46      -0.317143892494
 47      -0.014387214018
 48       0.000001239926
 49      -1.996972608573
 50      -0.031069125141
 51       0.000009304686
 52       0.001661189353
 53      -0.000000136601
 54       0.000000181532
 55      -0.009378478391
 56      -0.030209168248
 57      -0.030640334354
 58       0.059607808092
 59       1.726749692531
 60      -0.164317489978
 61      -0.149347771637
 62      -0.000000745055
 63      -0.832140407934
 64      -1.059442069742
 65      -0.000004341096
 66       0.006560925731
 67      -0.000000206986
 68       0.000000119967
 69      -0.000537865764
 70      -0.040673653815
 71      -0.038410188504
 72       0.074724851097
 73       2.164597271915
 74      -0.123895650255
 75       0.050533363809
 76       0.000001476507
 77      -0.524051438502
 78       0.463334060989
 79       0.000006849907
 80       0.008224066113
 81       0.000000288567
 82      -0.000000425273
 83       0.014029463578
 84       0.043089455946
 85      -0.174607543357
 86       0.323752779728
 87       0.007773434490
 88       0.012591259932
 89       0.000000044718
 90      -0.139335420218
 91       0.258291080839
 92       0.001664108403
 93      -0.017612949749
 94      -0.000000134585
 95      -0.035252617016
 96       0.065381077177
 97      -0.021442695080
 98       0.002780375693
 99       0.000000142260
100       0.035295496074
101      -0.065419471109
102      -0.021445393153
103       0.002781895925
104       0.000000109182
105       0.139352043547
106      -0.258362228106
107       0.001664233087
108      -0.017613346781
109      -0.000000139294
110       0.174630372122
111      -0.323731710114
112       0.007776053666
113       0.012588265785
114       0.000000057031
 Sym=     1a
 Ene= 2.65532421560100E-01
 Spin= Alpha
 Occup= 0.000000
  1       0.013222820583
  2      -0.025728779062
  3      -0.745322536859
  4       0.125934846737
  5      -0.279697857124
  6      -0.000002514209
  7       0.881428603375
  8      -1.711893129803
  9      -0.000016797707
 10      -0.002828608135
 11       0.000000128109
 12       0.000000292810
 13      -0.032889973915
 14       0.001937517577
 15      -0.026663612742
 16       0.051862393186
 17       1.502964177442
 18      -0.073816733830
 19      -0.239239162386
 20      -0.000001385859
 21      -0.641297007020
 22      -1.403704849129
 23      -0.000007129656
 24       0.005709389252
 25      -0.000000253334
 26      -0.000000285272
 27       0.035308199747
 28      -0.015419646526
 29       0.039860278187
 30      -0.077536623059
 31      -2.246952150802
 32       0.061065208845
 33      -0.086421464238
 34      -0.000001345532
 35       0.386819864471
 36      -0.238598918721
 37      -0.000004085929
 38      -0.008535875584
 39      -0.000000325400
 40      -0.000000225545
 41       0.045777451222
 42      -0.006581611346
 43      -0.039857140880
 44       0.077526143176
 45       2.246851535422
 46       0.061072390471
 47      -0.086414015206
 48      -0.000001108754
 49       0.387081358284
 50      -0.238549541755
 51      -0.000004216016
 52       0.008536515602
 53       0.000000355800
 54       0.000000211825
 55      -0.045775388626
 56       0.006592480588
 57       0.026639238933
 58      -0.051802492896
 59      -1.502208372598
 60      -0.073868038393
 61      -0.239201423182
 62      -0.000001069174
 63      -0.641543506150
 64      -1.403403308519
 65      -0.000006717341
 66      -0.005706330302
 67       0.000000216800
 68       0.000000279760
 69      -0.035303775607
 70       0.015421657381
 71      -0.013200778345
 72       0.025668398105
 73       0.744667886111
 74       0.125981038694
 75      -0.279660560166
 76      -0.000002667845
 77       0.881606357126
 78      -1.711566762090
 79      -0.000016826532
 80       0.002827761941
 81      -0.000000167173
 82      -0.000000293328
 83       0.032882162848
 84      -0.001936910274
 85      -0.060092069387
 86       0.111351131246
 87       0.014086569707
 88      -0.015775062172
 89      -0.000000174628
 90       0.121182890104
 91      -0.224619043549
 92      -0.016120296898
 93      -0.009664408644
 94       0.000000007273
 95      -0.181273386785
 96       0.336076494951
 97       0.004272489753
 98       0.013441801867
 99       0.000000078877
100       0.181258737714
101      -0.336079060079
102       0.004283297811
103       0.013441182842
104       0.000000082020
105      -0.121187319454
106       0.224770651624
107      -0.016118143787
108      -0.009661374188
109       0.000000003579
110       0.060065283789
111      -0.111453526010
112       0.014083121957
113      -0.015771517167
114      -0.000000199360
 Sym=     1a
 Ene= 3.40438049164091E-01
 Spin= Alpha
 Occup= 0.000000
  1      -0.088896394510
  2       0.638273883764
  3      -0.731021848615
  4       0.055331073226
  5       0.031393914701
  6      -0.000000012874
  7       0.099957917424
  8       0.056549994882
  9      -0.000000481480
 10      -0.038363771533
 11      -0.000000348321
 12       0.000000518636
 13      -0.002814218201
 14      -0.004710286716
 15      -0.088898485481
 16       0.638272284277
 17      -0.730939329192
 18       0.054866440141
 19      -0.032215906355
 20      -0.000000643421
 21       0.099074002065
 22      -0.058114792603
 23      -0.000000613047
 24      -0.038361501995
 25      -0.000000264630
 26       0.000000497032
 27      -0.002673426057
 28       0.004792890201
 29      -0.088894473471
 30       0.638302146119
 31      -0.731501533926
 32       0.000483398382
 33       0.063620025700
 34       0.000000532229
 35       0.000927727417
 36       0.114659444077
 37       0.000001484754
 38      -0.038363929153
 39      -0.000000353202
 40       0.000000476484
 41       0.005487544904
 42      -0.000078752450
 43      -0.088893241863
 44       0.638288186498
 45      -0.731400385036
 46      -0.000455877406
 47      -0.063619014305
 48      -0.000000332063
 49      -0.000791343174
 50      -0.114677711710
 51      -0.000001287958
 52      -0.038363061452
 53      -0.000000348676
 54       0.000000471763
 55       0.005487491577
 56      -0.000080655187
 57      -0.088902684276
 58       0.638318750274
 59      -0.731159655042
 60      -0.054869999108
 61       0.032209281451
 62       0.000000412496
 63      -0.099047745673
 64       0.058157117601
 65       0.000000151855
 66      -0.038365280163
 67      -0.000000245233
 68       0.000000458106
 69      -0.002672226963
 70       0.004793416795
 71      -0.088899587853
 72       0.638308709592
 73      -0.731216887147
 74      -0.055331828924
 75      -0.031396477127
 76       0.000000058290
 77      -0.099869781880
 78      -0.056657621203
 79       0.000000740001
 80      -0.038366173289
 81      -0.000000392034
 82       0.000000526378
 83      -0.002813083347
 84      -0.004710633313
 85       0.165952846263
 86       0.266618231560
 87      -0.000762884539
 88      -0.000435553506
 89      -0.000000007277
 90       0.165948765631
 91       0.266614973992
 92      -0.000755841827
 93       0.000447457072
 94      -0.000000006297
 95       0.165969913473
 96       0.266570040295
 97      -0.000009087394
 98      -0.000880342546
 99       0.000000025207
100       0.165965756719
101       0.266561415648
102       0.000006119480
103       0.000880168598
104       0.000000013108
105       0.165965859297
106       0.266652567710
107       0.000756606211
108      -0.000446501722
109      -0.000000046585
110       0.165965169386
111       0.266639128837
112       0.000763479533
113       0.000435256829
114       0.000000022592
 Sym=     1a
 Ene= 3.81007268714870E-01
 Spin= Alpha
 Occup= 0.000000
  1       0.000003997018
  2      -0.000022446028
  3      -0.000111686020
  4       0.147695217734
  5      -0.260298677255
  6      -0.000002686407
  7      -0.236789993287
  8       0.417182401586
  9       0.000004276688
 10       0.000002362659
 11      -0.000000320938
 12      -0.000000150306
 13       0.034006167264
 14      -0.020326172976
 15       0.000017879992
 16      -0.000163287155
 17       0.000276515732
 18       0.151516183523
 19       0.258057399032
 20       0.000001197365
 21      -0.243050996575
 22      -0.413864538139
 23      -0.000001891387
 24       0.000012642474
 25      -0.000000019062
 26      -0.000000346904
 27       0.034584794101
 28       0.019314183647
 29      -0.000016508811
 30       0.000120762372
 31      -0.000160923405
 32      -0.299284987596
 33       0.002248193836
 34       0.000001412166
 35       0.479860951989
 36      -0.003521553608
 37      -0.000002321246
 38      -0.000007184938
 39      -0.000000297307
 40       0.000000191197
 41      -0.000592850391
 42      -0.039603406029
 43       0.000008698651
 44      -0.000113790356
 45       0.000362176701
 46      -0.299280348326
 47       0.002228467585
 48       0.000001551794
 49       0.479790320090
 50      -0.003586053698
 51      -0.000002426747
 52       0.000010673537
 53       0.000000302068
 54      -0.000000204749
 55       0.000597775965
 56       0.039603053730
 57      -0.000023308514
 58       0.000209786034
 59      -0.000379800724
 60       0.151532153335
 61       0.258090504907
 62       0.000001135575
 63      -0.242979758200
 64      -0.413778761750
 65      -0.000001852147
 66      -0.000014443436
 67       0.000000023076
 68       0.000000338092
 69      -0.034586641932
 70      -0.019310608869
 71      -0.000008581189
 72       0.000085664423
 73      -0.000118493560
 74       0.147708435432
 75      -0.260312047901
 76      -0.000002608108
 77      -0.236778089001
 78       0.417257920524
 79       0.000004211077
 80      -0.000006413920
 81       0.000000321387
 82       0.000000138250
 83      -0.034008322380
 84       0.020323079669
 85      -0.000052201145
 86       0.000013195691
 87      -0.020228414690
 88       0.035656733725
 89       0.000000362444
 90      -0.000159345394
 91       0.000048434810
 92      -0.020746741338
 93      -0.035347943640
 94      -0.000000162827
 95       0.000040439711
 96       0.000084962205
 97       0.040976729256
 98      -0.000307149368
 99      -0.000000200248
100      -0.000111057200
101       0.000011492511
102       0.040976396170
103      -0.000310389981
104      -0.000000204084
105       0.000151298336
106      -0.000023702493
107      -0.020748684203
108      -0.035349262480
109      -0.000000158368
110       0.000070888319
111      -0.000018539072
112      -0.020229140912
113       0.035657592906
114       0.000000363175
 Sym=     1a
 Ene= 3.90551050007167E-01
 Spin= Alpha
 Occup= 0.000000
  1      -0.037978848913
  2       0.358764588015
  3      -0.969377089595
  4       0.089261464868
  5      -0.063032654614
  6      -0.000001020987
  7       0.348772766285
  8      -0.690520850374
  9      -0.000007044867
 10      -0.027657643804
 11      -0.000000276588
 12       0.000000117564
 13       0.025795138998
 14       0.006580477396
 15       0.041701301030
 16      -0.393939306324
 17       1.064643444735
 18      -0.092627386657
 19      -0.056859700841
 20       0.000000138199
 21      -0.343622982868
 22      -0.666534241978
 23      -0.000003166550
 24       0.030368479374
 25       0.000000457090
 26      -0.000000232840
 27      -0.025996388130
 28       0.009226985739
 29      -0.079637615125
 30       0.752648945769
 31      -2.036684003124
 32       0.003816684763
 33       0.097533027942
 34       0.000001317675
 35       0.022999237801
 36      -0.080230672480
 37      -0.000000615952
 38      -0.058032762233
 39      -0.000000299835
 40       0.000001113041
 41      -0.039590560004
 42       0.001171371367
 43       0.079642845835
 44      -0.752670102361
 45       2.036623526604
 46       0.003813721046
 47       0.097538037139
 48       0.000000800386
 49       0.023136923033
 50      -0.080200775683
 51      -0.000000959124
 52       0.058031658629
 53       0.000000274642
 54      -0.000001063804
 55       0.039587166253
 56      -0.001169697871
 57      -0.041692528133
 58       0.393915043250
 59      -1.064834348604
 60      -0.092640111699
 61      -0.056900502616
 62      -0.000000501282
 63      -0.343672211995
 64      -0.666786847524
 65      -0.000003211508
 66      -0.030370830426
 67      -0.000000414626
 68       0.000000172169
 69       0.025995986176
 70      -0.009230509847
 71       0.037975269052
 72      -0.358784671505
 73       0.969693866653
 74       0.089272457426
 75      -0.063058183561
 76      -0.000001219206
 77       0.348768983331
 78      -0.690771375916
 79      -0.000006491458
 80       0.027660721023
 81       0.000000380689
 82      -0.000000068151
 83      -0.025791031715
 84      -0.006578463836
 85       0.211348681027
 86       0.072316051639
 87      -0.020334571295
 88       0.011320626247
 89       0.000000148764
 90      -0.232037424962
 91      -0.079439462477
 92       0.021219749863
 93       0.009904826713
 94      -0.000000019281
 95       0.443465779077
 96       0.151408345903
 97      -0.000805231350
 98      -0.025385303150
 99      -0.000000122667
100      -0.443443007153
101      -0.151436294405
102      -0.000804925304
103      -0.025383392780
104      -0.000000176349
105       0.232066034703
106       0.079400322003
107       0.021220767278
108       0.009901824343
109      -0.000000075636
110      -0.211347599397
111      -0.072315724783
112      -0.020334397217
113       0.011318521248
114       0.000000180788
 Sym=     1a
 Ene= 3.90560650653677E-01
 Spin= Alpha
 Occup= 0.000000
  1      -0.070061863258
  2       0.662028942809
  3      -1.790006221369
  4       0.048227872856
  5       0.088948989535
  6       0.000000294179
  7      -0.267479979783
  8       0.329712148260
  9       0.000003963879
 10      -0.051041461169
 11      -0.000000248712
 12       0.000000394314
 13       0.009129444036
 14       0.035109681875
 15      -0.067903273868
 16       0.641714307988
 17      -1.735840491356
 18       0.041965070077
 19      -0.092848908487
 20      -0.000000952035
 21      -0.291589282382
 22      -0.361994506200
 23      -0.000001514519
 24      -0.049477481070
 25      -0.000000713638
 26       0.000000774041
 27       0.006694593851
 28      -0.034920381473
 29      -0.002144649175
 30       0.020322490515
 31      -0.055455403324
 32      -0.112564178025
 33       0.003465149583
 34       0.000000646966
 35      -0.878304119082
 36       0.004118643023
 37       0.000003930085
 38      -0.001566805152
 39      -0.000000121236
 40       0.000000169733
 41      -0.001380199411
 42      -0.021336928460
 43       0.002138759746
 44      -0.020263607427
 45       0.055224640354
 46      -0.112554073546
 47       0.003454747462
 48       0.000000566704
 49      -0.878237634067
 50       0.004197656806
 51       0.000004683308
 52       0.001564901482
 53       0.000000143145
 54      -0.000000097228
 55       0.001388330018
 56       0.021337786551
 57       0.067890867847
 58      -0.641649966838
 59       1.735893519352
 60       0.041947527379
 61      -0.092858515082
 62      -0.000000157667
 63      -0.291668833553
 64      -0.362039916953
 65      -0.000001165957
 66       0.049478209331
 67       0.000000601960
 68      -0.000000719550
 69      -0.006698561524
 70       0.034926668064
 71       0.070051658185
 72      -0.661968549505
 73       1.789992065855
 74       0.048217762633
 75       0.088949058404
 76      -0.000000178511
 77      -0.267481251322
 78       0.329683945641
 79       0.000003669208
 80       0.051041577036
 81       0.000000303916
 82      -0.000000399829
 83      -0.009132708896
 84      -0.035116941613
 85       0.389963695631
 86       0.133283248268
 87      -0.014103959931
 88      -0.020386745927
 89      -0.000000088848
 90       0.378035060227
 91       0.129095511918
 92      -0.012677995808
 93       0.021158516647
 94       0.000000217611
 95       0.011946306066
 96       0.004067832316
 97       0.022609180782
 98      -0.000852780648
 99      -0.000000132694
100      -0.011978720093
101      -0.004019591971
102       0.022610223625
103      -0.000853980418
104      -0.000000094828
105      -0.378074606681
106      -0.129032069416
107      -0.012681368415
108       0.021159431795
109       0.000000281692
110      -0.390003191898
111      -0.133224086136
112      -0.014106702379
113      -0.020388131149
114      -0.000000142519
 Sym=     1a
 Ene= 3.97636911095446E-01
 Spin= Alpha
 Occup= 0.000000
  1       0.040107766176
  2      -0.215622755827
  3       0.170938506648
  4      -0.040992535538
  5      -0.023339354947
  6      -0.000000408260
  7       0.102183374429
  8       0.058177206398
  9      -0.000000335674
 10      -0.018448525555
 11       0.000000151195
 12      -0.000000380463
 13       0.037397586722
 14       0.062596998263
 15       0.040117834697
 16      -0.215596455843
 17       0.170033686370
 18      -0.040621946590
 19       0.023972665717
 20       0.000000619692
 21       0.101004202536
 22      -0.059365757499
 23      -0.000000650230
 24      -0.018454551717
 25      -0.000000839264
 26       0.000000302030
 27       0.035528297754
 28      -0.063682753706
 29       0.040120633825
 30      -0.215550369554
 31       0.169893921398
 32      -0.000348341313
 33      -0.047161602317
 34       0.000000363400
 35       0.000827805246
 36       0.117070070463
 37       0.000001229993
 38      -0.018459873142
 39       0.000000161495
 40       0.000000810762
 41      -0.072909797415
 42       0.001082193946
 43       0.040104420820
 44      -0.215499158926
 45       0.170649386066
 46       0.000338907499
 47       0.047142074713
 48      -0.000000070415
 49      -0.000731178051
 50      -0.117445293708
 51      -0.000001217843
 52      -0.018460489309
 53       0.000000258429
 54       0.000000759078
 55      -0.072911650099
 56       0.001087342284
 57       0.040115282524
 58      -0.215658146145
 59       0.170848970305
 60       0.040639901619
 61      -0.023959927676
 62      -0.000001236647
 63      -0.101326562048
 64       0.059548131473
 65       0.000000471585
 66      -0.018446778201
 67      -0.000000736747
 68       0.000000255533
 69       0.035522111359
 70      -0.063674930961
 71       0.040126516966
 72      -0.215693252815
 73       0.170161874021
 74       0.041026261787
 75       0.023331362540
 76       0.000000702089
 77      -0.101846607452
 78      -0.058003131473
 79       0.000000524247
 80      -0.018446636972
 81       0.000000053485
 82      -0.000000337568
 83       0.037395603726
 84       0.062592985843
 85       0.446490049353
 86      -0.361951791093
 87      -0.023008137575
 88      -0.013052238442
 89      -0.000000025090
 90       0.446547528796
 91      -0.362050537758
 92      -0.022820163091
 93       0.013393229328
 94       0.000000249545
 95       0.446564419789
 96      -0.362026607244
 97      -0.000193257813
 98      -0.026464683936
 99      -0.000000146529
100       0.446568463632
101      -0.361943383984
102       0.000202463575
103       0.026463656243
104       0.000000151845
105       0.446459682377
106      -0.361945772004
107       0.022812409197
108      -0.013390856547
109      -0.000000262345
110       0.446468551993
111      -0.362028460577
112       0.023008653982
113       0.013050264269
114       0.000000031253
 Sym=     1a
 Ene= 4.16968011355060E-01
 Spin= Alpha
 Occup= 0.000000
  1      -0.108176379361
  2       0.194883717545
  3       6.266966587112
  4       0.079788445281
  5       0.045262498439
  6      -0.000003948812
  7       2.637696188777
  8       1.497027725052
  9       0.000000609345
 10       0.018622748052
 11       0.000000042057
 12      -0.000000168795
 13      -0.005873659610
 14      -0.009827533857
 15       0.108184128215
 16      -0.194950835317
 17      -6.266668556682
 18      -0.079103053858
 19       0.046444797409
 20      -0.000002870879
 21      -2.615244130009
 22       1.536035673928
 23       0.000026141227
 24      -0.018614865834
 25      -0.000000317587
 26       0.000000283785
 27       0.005575667010
 28      -0.009986906581
 29       0.108196074867
 30      -0.195044305381
 31      -6.266197232016
 32      -0.000684644698
 33      -0.091758313483
 34      -0.000004988814
 35      -0.022475418668
 36      -3.032925659929
 37      -0.000019979902
 38      -0.018607692418
 39      -0.000000112045
 40       0.000000258745
 41      -0.011427529706
 42       0.000170592267
 43      -0.108201107412
 44       0.195075457296
 45       6.266184943741
 46      -0.000677793789
 47      -0.091766522068
 48      -0.000004472607
 49      -0.022415156140
 50      -3.032899062259
 51      -0.000020738549
 52       0.018609393546
 53       0.000000088784
 54      -0.000000269512
 55       0.011436049567
 56      -0.000171284587
 57      -0.108187847203
 58       0.194970747262
 59       6.266727322714
 60      -0.079100611744
 61       0.046441187850
 62      -0.000003707018
 63      -2.615264469795
 64       1.535979633081
 65       0.000025985622
 66       0.018618214913
 67       0.000000299133
 68      -0.000000265109
 69      -0.005580972755
 70       0.009995172447
 71       0.108170473083
 72      -0.194847393765
 73      -6.267055280893
 74       0.079775883815
 75       0.045259930299
 76      -0.000004289486
 77       2.637769470051
 78       1.496990348183
 79      -0.000000244333
 80      -0.018621154902
 81      -0.000000091068
 82       0.000000176125
 83       0.005870462515
 84       0.009820045468
 85      -0.203092176743
 86       0.768252639392
 87       0.022982314511
 88       0.013039666373
 89      -0.000000082031
 90       0.203000147347
 91      -0.768282966816
 92      -0.022785080574
 93       0.013374968026
 94       0.000000128157
 95       0.202945852595
 96      -0.768353945921
 97      -0.000197558526
 98      -0.026414266381
 99      -0.000000251000
100      -0.202996147928
101       0.768391404503
102      -0.000197994718
103      -0.026416834958
104      -0.000000281507
105      -0.203068555147
106       0.768308922146
107      -0.022789388881
108       0.013377102269
109       0.000000150418
110       0.203045815295
111      -0.768210000151
112       0.022980842583
113       0.013037899426
114      -0.000000090907
 Sym=     1a
 Ene= 4.32485786471632E-01
 Spin= Alpha
 Occup= 0.000000
  1       0.000001092069
  2      -0.000001848831
  3      -0.000061585544
  4      -0.000002753395
  5       0.000002364808
  6      -0.403680625317
  7      -0.000024907094
  8      -0.000016661528
  9       0.288431814045
 10      -0.000000216037
 11      -0.011948028020
 12      -0.006780356969
 13      -0.000000005218
 14       0.000000157186
 15      -0.000001145650
 16       0.000002112495
 17       0.000061108615
 18      -0.000001346746
 19       0.000002576576
 20      -0.403671026367
 21       0.000027659221
 22      -0.000017527026
 23       0.288414499084
 24       0.000000422088
 25      -0.011845003511
 26       0.006957170047
 27      -0.000000089092
 28       0.000000252488
 29      -0.000001039413
 30       0.000001731930
 31       0.000061315897
 32      -0.000002177044
 33       0.000004449658
 34      -0.403724494507
 35       0.000001945073
 36       0.000026966670
 37       0.288492357301
 38       0.000000033256
 39      -0.000102010327
 40      -0.013740342968
 41       0.000000030705
 42      -0.000000113935
 43       0.000001121602
 44      -0.000002136055
 45      -0.000060549093
 46      -0.000001736867
 47       0.000004039339
 48      -0.403718368014
 49       0.000001287754
 50       0.000027583868
 51       0.288485549930
 52      -0.000000035771
 53       0.000100482755
 54       0.013739825154
 55      -0.000000046067
 56       0.000000021709
 57       0.000001023979
 58      -0.000001863669
 59      -0.000060332859
 60      -0.000000400565
 61       0.000002152191
 62      -0.403694058224
 63       0.000025941058
 64      -0.000016448169
 65       0.288437883370
 66      -0.000000363229
 67       0.011846360871
 68      -0.006958058587
 69       0.000000056479
 70      -0.000000232954
 71      -0.000001057054
 72       0.000002036926
 73       0.000060009863
 74      -0.000003480792
 75       0.000002339171
 76      -0.403697526227
 77      -0.000023375070
 78      -0.000016463953
 79       0.288449974984
 80       0.000000158516
 81       0.011948936373
 82       0.006781584169
 83       0.000000075513
 84      -0.000000182602
 85       0.000002376575
 86      -0.000008263230
 87      -0.000000292228
 88      -0.000000116007
 89      -0.004304110913
 90      -0.000002462390
 91       0.000008433166
 92       0.000000268410
 93      -0.000000127024
 94      -0.004304736360
 95      -0.000002147511
 96       0.000008070445
 97      -0.000000003528
 98       0.000000295374
 99      -0.004306728682
100       0.000002277728
101      -0.000008282868
102      -0.000000030315
103       0.000000330778
104      -0.004306842089
105       0.000001866605
106      -0.000007967645
107       0.000000172715
108      -0.000000089420
109      -0.004304054353
110      -0.000001934971
111       0.000008046335
112      -0.000000230279
113      -0.000000093784
114      -0.004303608109
 Sym=     1a
 Ene= 4.63265207900441E-01
 Spin= Alpha
 Occup= 0.000000
  1       0.008347712168
  2       0.062393203670
  3      -0.509337374600
  4      -0.182384386038
  5       0.356873393530
  6       0.000003423830
  7      -0.154522882270
  8      -0.207207956347
  9      -0.000000713009
 10      -0.014051882793
 11       0.000000004193
 12       0.000000261377
 13      -0.018019246016
 14       0.012628418023
 15       0.023060552820
 16       0.172575668886
 17      -1.408242429413
 18      -0.106182246396
 19      -0.276434605904
 20      -0.000001321021
 21      -0.525317745226
 22       0.397666016583
 23       0.000005248556
 24      -0.038836574576
 25      -0.000000320757
 26       0.000000637231
 27      -0.011843571838
 28      -0.011649543394
 29      -0.031387064367
 30      -0.235072550158
 31       1.917520610839
 32       0.107676379505
 33      -0.066726280921
 34      -0.000001972695
 35      -0.022298187817
 36       0.891273433252
 37       0.000007596579
 38       0.052873369209
 39       0.000000417733
 40      -0.000000944081
 41       0.006051984972
 42       0.005845161812
 43      -0.031387301012
 44      -0.235081660985
 45       1.917617025070
 46      -0.107666362602
 47       0.066721007148
 48       0.000001624686
 49       0.022185437082
 50      -0.891302578667
 51      -0.000007530941
 52       0.052873945039
 53       0.000000482598
 54      -0.000000852319
 55       0.006051983423
 56       0.005843222920
 57       0.023061814477
 58       0.172549093220
 59      -1.408052178656
 60       0.106158226914
 61       0.276409759235
 62       0.000000583956
 63       0.525293676997
 64      -0.397643307569
 65      -0.000004539380
 66      -0.038834904520
 67      -0.000000180691
 68       0.000000586464
 69      -0.011840040602
 70      -0.011648883592
 71       0.008351345641
 72       0.062366785042
 73      -0.509306995428
 74       0.182371411416
 75      -0.356845047594
 76      -0.000003204185
 77       0.154546617398
 78       0.207215025147
 79       0.000000400500
 80      -0.014050768467
 81       0.000000012500
 82       0.000000264240
 83      -0.018015218713
 84       0.012628965803
 85       0.106970752197
 86      -0.083100453275
 87       0.000077789529
 88      -0.024471024209
 89      -0.000000169245
 90       0.295589214680
 91      -0.229667534828
 92      -0.020742681764
 93       0.030226498000
 94       0.000000308227
 95      -0.402292586318
 96       0.312591606211
 97      -0.005428445225
 98       0.045224408937
 99       0.000000374674
100      -0.402299274054
101       0.312601514776
102       0.005424953653
103      -0.045224564892
104      -0.000000388501
105       0.295585319155
106      -0.229682627511
107       0.020745543488
108      -0.030223372260
109      -0.000000314471
110       0.106981486452
111      -0.083145539405
112      -0.000074382179
113       0.024468441475
114       0.000000184763
 Sym=     1a
 Ene= 4.63273217974353E-01
 Spin= Alpha
 Occup= 0.000000
  1      -0.031437397823
  2      -0.235355945428
  3       1.920435623115
  4      -0.109887193156
  5       0.059823284422
  6       0.000001430991
  7       0.789247926047
  8       0.417286397881
  9      -0.000001183239
 10       0.052951791980
 11       0.000000549501
 12      -0.000000581611
 13      -0.008068180545
 14      -0.002159542140
 15       0.022935687455
 16       0.171788648095
 17      -1.401515805936
 18       0.190282118538
 19       0.228829678168
 20       0.000000910156
 21      -0.599872063499
 22       0.264630271363
 23       0.000004637268
 24      -0.038638674097
 25      -0.000000357083
 26       0.000000334594
 27       0.016179389084
 28       0.004033019337
 29       0.008491946307
 30       0.063619523513
 31      -0.518908866043
 32       0.399877400932
 33       0.014873405918
 34      -0.000001623379
 35      -0.107183690406
 36      -0.240379334609
 37      -0.000001513873
 38      -0.014306127150
 39       0.000000000541
 40       0.000000108848
 41      -0.001285636063
 42       0.021944091055
 43       0.008486065833
 44       0.063665023567
 45      -0.519013874371
 46      -0.399891704929
 47      -0.014889252340
 48       0.000001659241
 49       0.107200405508
 50       0.240372813337
 51       0.000001441349
 52      -0.014309438089
 53       0.000000017030
 54       0.000000150262
 55      -0.001285442121
 56       0.021945649460
 57       0.022936861010
 58       0.171761137771
 59      -1.401339205820
 60      -0.190273180215
 61      -0.228804737739
 62      -0.000001739406
 63       0.599873051612
 64      -0.264570026709
 65      -0.000003918808
 66      -0.038636237558
 67      -0.000000232503
 68       0.000000213791
 69       0.016175958017
 70       0.004032610982
 71      -0.031439083545
 72      -0.235323879989
 73       1.920266971693
 74       0.109894168442
 75      -0.059825303463
 76      -0.000002226233
 77      -0.789279364149
 78      -0.417174306475
 79       0.000002148912
 80       0.052949206717
 81       0.000000659863
 82      -0.000000462041
 83      -0.008067960595
 84      -0.002158685095
 85      -0.402971480112
 86       0.313112093229
 87       0.042148861797
 88       0.017420660051
 89      -0.000000084644
 90       0.293985552525
 91      -0.228443242841
 92      -0.036391042921
 93       0.003239196262
 94       0.000000184978
 95       0.108846823401
 96      -0.084610254722
 97      -0.021378697174
 98      -0.012068483004
 99       0.000000021762
100       0.108849505415
101      -0.084559564873
102       0.021381040061
103       0.012068018768
104       0.000000007283
105       0.293969264266
106      -0.228443693992
107       0.036389323823
108      -0.003241577084
109      -0.000000184890
110      -0.402954807782
111       0.313112853206
112      -0.042149443670
113      -0.017418871604
114       0.000000104116
 Sym=     1a
 Ene= 4.90851153771652E-01
 Spin= Alpha
 Occup= 0.000000
  1       0.000012163049
  2      -0.000013802503
  3       0.000618148059
  4      -0.160167331826
  5       0.282263069594
  6       0.000002963976
  7      -1.740376155397
  8       3.066808414680
  9       0.000031081386
 10      -0.000010073377
 11      -0.000000210519
 12      -0.000000023410
 13       0.018730861871
 14      -0.011192470925
 15      -0.000008222314
 16      -0.000036337504
 17      -0.000747267537
 18       0.164365712885
 19       0.279900285822
 20       0.000001353482
 21       1.785496003066
 22       3.040544573717
 23       0.000014094831
 24       0.000015945163
 25      -0.000000030703
 26       0.000000132747
 27      -0.019052666293
 28      -0.010623745520
 29       0.000008078402
 30      -0.000044518829
 31       0.000330338246
 32      -0.324757570270
 33       0.002436544777
 34       0.000001363795
 35      -3.525423395367
 36       0.026159907277
 37       0.000017291487
 38      -0.000000857567
 39       0.000000245418
 40      -0.000000103658
 41       0.000325590930
 42       0.021808589315
 43      -0.000008317528
 44       0.000080504129
 45       0.000115876456
 46       0.324747104548
 47      -0.002414761163
 48      -0.000001904589
 49       3.525453258295
 50      -0.026179013698
 51      -0.000017463677
 52      -0.000004508200
 53       0.000000250119
 54      -0.000000110627
 55       0.000325228505
 56       0.021808321745
 57      -0.000002765007
 58      -0.000068332134
 59      -0.000758595732
 60      -0.164363457904
 61      -0.279904643584
 62      -0.000001063821
 63      -1.785464379355
 64      -3.040573483500
 65      -0.000013616726
 66       0.000016562081
 67      -0.000000034623
 68       0.000000109540
 69      -0.019056572084
 70      -0.010625602449
 71      -0.000003885634
 72       0.000091008123
 73       0.000490502552
 74       0.160179828673
 75      -0.282270181731
 76      -0.000002723514
 77       1.740316743739
 78      -3.066836432126
 79      -0.000031380070
 80      -0.000012148117
 81      -0.000000225009
 82      -0.000000000243
 83       0.018732155300
 84      -0.011193567814
 85       0.000056338182
 86      -0.000125768453
 87      -0.013350439999
 88       0.023507985690
 89       0.000000242382
 90      -0.000118369440
 91       0.000122388282
 92       0.013698337193
 93       0.023299980657
 94       0.000000114730
 95       0.000012691544
 96      -0.000077733079
 97      -0.027022205953
 98       0.000195840933
 99       0.000000122255
100       0.000018527703
101       0.000016218319
102       0.027021084962
103      -0.000198749411
104      -0.000000143180
105      -0.000123459925
106       0.000098840169
107      -0.013701288909
108      -0.023305679529
109      -0.000000098905
110       0.000060036003
111      -0.000036431717
112       0.013349485898
113      -0.023511996631
114      -0.000000237458
 Sym=     1a
 Ene= 4.99502622927240E-01
 Spin= Alpha
 Occup= 0.000000
  1       0.000000071458
  2      -0.000000475669
  3       0.000001092033
  4       0.000002295786
  5      -0.000002536683
  6       0.417589343349
  7      -0.000003062493
  8       0.000001779588
  9      -0.425799433713
 10      -0.000000317654
 11       0.036495069064
 12      -0.001697696525
 13       0.000000094980
 14      -0.000000277097
 15       0.000000042859
 16      -0.000000070518
 17      -0.000001119871
 18      -0.000000820774
 19       0.000000677902
 20      -0.131450509456
 21       0.000000317733
 22      -0.000000045433
 23       0.134012916858
 24      -0.000000075990
 25      -0.022405479198
 26      -0.018944768373
 27      -0.000000307448
 28       0.000000048966
 29      -0.000000182104
 30       0.000000594735
 31      -0.000001171511
 32       0.000002547509
 33      -0.000005542520
 34       0.549104419737
 35      -0.000002119499
 36       0.000007736757
 37      -0.559966985131
 38       0.000000698966
 39      -0.007891304078
 40       0.040689955400
 41       0.000000365689
 42       0.000000232098
 43      -0.000000152410
 44       0.000000498221
 45       0.000001453091
 46      -0.000002483828
 47       0.000004683672
 48      -0.549094620289
 49       0.000002530575
 50      -0.000007195887
 51       0.559950073789
 52       0.000000649384
 53      -0.007892227485
 54       0.040689760192
 55       0.000000268682
 56       0.000000223227
 57       0.000000018046
 58      -0.000000074738
 59       0.000000860386
 60       0.000000597061
 61      -0.000000132986
 62       0.131459353587
 63      -0.000000549578
 64       0.000000001032
 65      -0.134030318751
 66      -0.000000075616
 67      -0.022406382446
 68      -0.018945498654
 69      -0.000000327413
 70      -0.000000008570
 71       0.000000195367
 72      -0.000000386768
 73      -0.000001243348
 74      -0.000002950407
 75       0.000002200484
 76      -0.417605908848
 77       0.000005062384
 78      -0.000000774761
 79       0.425832267308
 80      -0.000000487642
 81       0.036495712098
 82      -0.001697439649
 83       0.000000183880
 84      -0.000000140716
 85      -0.000000039353
 86      -0.000000593139
 87      -0.000000122864
 88       0.000000053930
 89      -0.010427267511
 90       0.000000165072
 91      -0.000000348826
 92       0.000000010474
 93       0.000000007830
 94       0.003281636486
 95      -0.000000616575
 96       0.000001966328
 97      -0.000000050432
 98       0.000000335599
 99      -0.013708026791
100      -0.000000446389
101       0.000001433901
102       0.000000090365
103      -0.000000238858
104       0.013707513524
105       0.000000104622
106      -0.000000307082
107       0.000000062621
108       0.000000048509
109      -0.003282165381
110       0.000000907277
111      -0.000002079750
112       0.000000250009
113       0.000000021782
114       0.010428492987
 Sym=     1a
 Ene= 4.99507782412106E-01
 Spin= Alpha
 Occup= 0.000000
  1      -0.000000169613
  2       0.000000200402
  3       0.000004462403
  4      -0.000002474918
  5       0.000002828765
  6      -0.392921083792
  7       0.000005837555
  8      -0.000001910645
  9       0.400679229520
 10      -0.000000189478
 11      -0.015064431239
 12      -0.032367392609
 13      -0.000000394030
 14      -0.000000088042
 15       0.000000152521
 16      -0.000000289634
 17      -0.000004838709
 18      -0.000002487779
 19       0.000004100818
 20      -0.558121294525
 21      -0.000000871174
 22      -0.000002937021
 23       0.569130025042
 24       0.000000568806
 25      -0.032310934527
 26       0.026538639700
 27       0.000000058765
 28       0.000000383508
 29       0.000000010608
 30       0.000000408335
 31      -0.000004612537
 32       0.000001438599
 33      -0.000001574615
 34       0.165191879636
 35      -0.000001350111
 36       0.000000358747
 37      -0.168447771591
 38      -0.000000116840
 39       0.027320452279
 40       0.012021652616
 41       0.000000167395
 42      -0.000000045957
 43      -0.000000100576
 44      -0.000000149046
 45       0.000004807741
 46      -0.000001255729
 47       0.000001470867
 48      -0.165222554303
 49       0.000001217352
 50      -0.000003932263
 51       0.168485179296
 52       0.000000019196
 53       0.027320065379
 54       0.012022205479
 55       0.000000317175
 56      -0.000000077792
 57       0.000000186666
 58      -0.000000807515
 59       0.000004559929
 60       0.000001019140
 61      -0.000003248773
 62       0.558118420620
 63       0.000000002312
 64       0.000003068922
 65      -0.569146303339
 66       0.000000481551
 67      -0.032310857259
 68       0.026538999390
 69       0.000000116063
 70       0.000000285537
 71      -0.000000088798
 72       0.000000663168
 73      -0.000004422862
 74       0.000003133390
 75      -0.000002773421
 76       0.392902183188
 77      -0.000003400211
 78       0.000003183049
 79      -0.400663382832
 80      -0.000000251083
 81      -0.015063600893
 82      -0.032367898590
 83      -0.000000388577
 84      -0.000000018936
 85      -0.000000784994
 86       0.000001905210
 87       0.000000187385
 88      -0.000000016098
 89       0.009813662601
 90       0.000000536262
 91      -0.000001614304
 92      -0.000000034241
 93      -0.000000059102
 94       0.013937103521
 95       0.000000398466
 96      -0.000000431314
 97       0.000000029245
 98       0.000000036886
 99      -0.004123201501
100      -0.000000750988
101       0.000001350155
102       0.000000028956
103      -0.000000127462
104       0.004124579032
105       0.000000537664
106      -0.000001821648
107       0.000000152537
108      -0.000000046106
109      -0.013938140366
110      -0.000000037321
111       0.000000680021
112      -0.000000142968
113      -0.000000032686
114      -0.009813333999
 Sym=     1a
 Ene= 5.57632580470271E-01
 Spin= Alpha
 Occup= 0.000000
  1      -0.000000061582
  2       0.000000279511
  3      -0.000000166447
  4      -0.000001235772
  5       0.000000930821
  6      -0.175284335017
  7       0.000003496587
  8      -0.000002280973
  9       0.311303172527
 10       0.000000352209
 11      -0.014343581110
 12       0.017544285672
 13       0.000000033573
 14       0.000000168328
 15      -0.000000051998
 16       0.000000146409
 17      -0.000001142726
 18       0.000002533912
 19      -0.000004280977
 20       0.575718581714
 21      -0.000005553566
 22       0.000007063519
 23      -1.022397151981
 24      -0.000000154820
 25       0.008201359105
 26      -0.010788864478
 27      -0.000000077286
 28      -0.000000020478
 29       0.000000055231
 30      -0.000000139241
 31       0.000000133082
 32      -0.000001638608
 33       0.000003509977
 34      -0.400400241314
 35       0.000003923741
 36      -0.000005814665
 37       0.711085817124
 38      -0.000000333017
 39       0.017116895482
 40      -0.008846288722
 41      -0.000000126691
 42      -0.000000107576
 43      -0.000000090000
 44       0.000000355754
 45      -0.000000637775
 46      -0.000002110021
 47       0.000003689026
 48      -0.400378001855
 49       0.000002958787
 50      -0.000007062283
 51       0.711037883857
 52       0.000000301474
 53      -0.017117885256
 54       0.008845876360
 55       0.000000072764
 56       0.000000181910
 57       0.000000205387
 58      -0.000000782646
 59       0.000001299750
 60       0.000001508976
 61      -0.000003343240
 62       0.575714374014
 63      -0.000001801150
 64       0.000006520531
 65      -1.022420167257
 66       0.000000062577
 67      -0.008200101893
 68       0.010788626649
 69       0.000000184592
 70      -0.000000096817
 71       0.000000004014
 72       0.000000072433
 73      -0.000000026728
 74      -0.000000945089
 75       0.000001179796
 76      -0.175303624163
 77       0.000000620208
 78      -0.000001641164
 79       0.311348016069
 80      -0.000000395942
 81       0.014343724630
 82      -0.017543387307
 83      -0.000000080356
 84      -0.000000086312
 85      -0.000000048754
 86       0.000001092844
 87       0.000000144853
 88      -0.000000068741
 89       0.004255044066
 90      -0.000000327760
 91       0.000000684353
 92      -0.000000022089
 93       0.000000047901
 94      -0.013981632981
 95       0.000000535286
 96      -0.000000612627
 97       0.000000164188
 98      -0.000000118157
 99       0.009727317498
100      -0.000000338311
101       0.000001491068
102       0.000000092265
103      -0.000000202753
104       0.009724315487
105       0.000001070414
106      -0.000002601833
107       0.000000095782
108      -0.000000017904
109      -0.013981940140
110       0.000000351085
111       0.000000079902
112       0.000000080403
113      -0.000000145245
114       0.004257464358
 Sym=     1a
 Ene= 5.57633690673933E-01
 Spin= Alpha
 Occup= 0.000000
  1      -0.000000050742
  2       0.000000056464
  3      -0.000000400521
  4      -0.000003290370
  5       0.000004090832
  6      -0.563568841629
  7       0.000004789180
  8      -0.000006346475
  9       1.000832805070
 10      -0.000000018290
 11      -0.007242524636
 12      -0.012098137859
 13      -0.000000223952
 14      -0.000000108100
 15      -0.000000026558
 16       0.000000027989
 17      -0.000000560971
 18       0.000000574767
 19      -0.000000816366
 20       0.129955500187
 21      -0.000000368475
 22       0.000002913771
 23      -0.230801463047
 24       0.000000151738
 25       0.013994433276
 26       0.018243171107
 27       0.000000172290
 28       0.000000002917
 29      -0.000000155121
 30       0.000000581984
 31      -0.000001083128
 32       0.000002003352
 33      -0.000004347582
 34       0.433574788271
 35      -0.000004700398
 36       0.000008433236
 37      -0.769999990018
 38       0.000000077366
 39       0.015937345739
 40       0.009323293853
 41       0.000000299437
 42      -0.000000053920
 43       0.000000024899
 44      -0.000000005990
 45       0.000000404993
 46       0.000002427891
 47      -0.000003431428
 48       0.433596140436
 49      -0.000002982698
 50       0.000005243760
 51      -0.770033573336
 52      -0.000000043361
 53      -0.015936879068
 54      -0.009324296699
 55      -0.000000265241
 56       0.000000051192
 57       0.000000044711
 58      -0.000000180996
 59       0.000000226215
 60       0.000000413741
 61      -0.000000681022
 62       0.129959931709
 63      -0.000001302596
 64       0.000000052780
 65      -0.230817783731
 66      -0.000000142880
 67      -0.013994187075
 68      -0.018242795270
 69      -0.000000245344
 70      -0.000000080872
 71       0.000000197630
 72      -0.000000812703
 73       0.000001493889
 74      -0.000003938844
 75       0.000003299162
 76      -0.563559847804
 77       0.000008051605
 78      -0.000006639024
 79       1.000836466609
 80      -0.000000027940
 81       0.007240999628
 82       0.012098384867
 83       0.000000226741
 84       0.000000197886
 85      -0.000000471829
 86       0.000000799113
 87       0.000000114726
 88      -0.000000035577
 89       0.013686572890
 90      -0.000000217150
 91       0.000000380612
 92       0.000000050003
 93       0.000000054800
 94      -0.003156576978
 95      -0.000000652228
 96       0.000002139721
 97       0.000000035797
 98       0.000000250535
 99      -0.010529896772
100       0.000000428139
101      -0.000000286355
102       0.000000019222
103       0.000000105030
104      -0.010532528323
105       0.000000200158
106      -0.000000549886
107       0.000000096617
108       0.000000140054
109      -0.003157029217
110       0.000000867921
111      -0.000002500334
112       0.000000225494
113       0.000000023914
114       0.013686097839
 Sym=     1a
 Ene= 5.84588686460913E-01
 Spin= Alpha
 Occup= 0.000000
  1       0.115823810805
  2      -0.626798105667
  3       1.464300873177
  4       0.242339615371
  5       0.240098979865
  6       0.000000074574
  7      -0.516018270787
  8      -0.468458506747
  9      -0.000000158263
 10      -0.035559577896
 11      -0.000000188587
 12      -0.000000062298
 13       0.033903134885
 14       0.047705004680
 15       0.104483183887
 16      -0.565438336523
 17       1.321143813236
 18       0.194456776859
 19      -0.255445443100
 20      -0.000002808402
 21      -0.423378566120
 22       0.490273906289
 23       0.000005676130
 24      -0.032077651886
 25      -0.000000718359
 26       0.000000419631
 27       0.031173240315
 28      -0.042877292399
 29       0.011336929755
 30      -0.061367739184
 31       0.143454526888
 32      -0.210754081494
 33       0.033804766815
 34       0.000001359232
 35       0.360663897966
 36      -0.069211290242
 37      -0.000001897790
 38      -0.003478093688
 39       0.000000188339
 40       0.000000098034
 41      -0.005546403705
 42       0.011065062689
 43      -0.011332161052
 44       0.061326907768
 45      -0.143373474078
 46      -0.210771779084
 47       0.033771026349
 48       0.000001409913
 49       0.360550441591
 50      -0.069139132190
 51      -0.000003113099
 52       0.003480211475
 53      -0.000000166483
 54       0.000000010056
 55       0.005544511893
 56      -0.011065659067
 57      -0.104485863443
 58       0.565462398103
 59      -1.321207186200
 60       0.194493389766
 61      -0.255432818586
 62      -0.000001152468
 63      -0.423369661584
 64       0.490384995181
 65       0.000002179606
 66       0.032077854058
 67       0.000000517685
 68      -0.000000351528
 69      -0.031173182991
 70       0.042881759689
 71      -0.115825061212
 72       0.626809021299
 73      -1.464323019006
 74       0.242353381434
 75       0.240102318423
 76      -0.000000956913
 77      -0.516106822925
 78      -0.468362055081
 79       0.000002445368
 80       0.035560154005
 81       0.000000304764
 82       0.000000054446
 83      -0.033903155105
 84      -0.047708613767
 85       0.320114221940
 86      -1.154145966981
 87      -0.091761477847
 88      -0.029922005863
 89       0.000000304611
 90       0.288763388796
 91      -1.041136061139
 92      -0.086886976555
 93       0.020526563995
 94       0.000000561851
 95       0.031326345386
 96      -0.112987040315
 97      -0.045630001437
 98      -0.008917502804
 99       0.000000126288
100      -0.031315884044
101       0.112893587752
102      -0.045630737506
103      -0.008914875171
104       0.000000156482
105      -0.288780700807
106       1.041210130861
107      -0.086891051295
108       0.020528327697
109       0.000000350510
110      -0.320125888163
111       1.154186793706
112      -0.091765577349
113      -0.029921384721
114       0.000000434852
 Sym=     1a
 Ene= 5.84593879406056E-01
 Spin= Alpha
 Occup= 0.000000
  1      -0.053779690050
  2       0.291040165951
  3      -0.679881426096
  4      -0.227851822111
  5       0.091653631353
  6       0.000002047209
  7       0.436881277048
  8      -0.129954024405
  9      -0.000004090739
 10       0.016514827573
 11      -0.000000089401
 12       0.000000016130
 13      -0.005307951693
 14      -0.028387043500
 15       0.073415898608
 16      -0.397302481496
 17       0.928148136887
 18       0.267790808355
 19       0.043782660577
 20      -0.000000951064
 21      -0.521853410974
 22      -0.037336989972
 23       0.000002225253
 24      -0.022543043368
 25      -0.000000533650
 26       0.000000360823
 27       0.010133170084
 28      -0.036689974678
 29      -0.127194357970
 30       0.688315825026
 31      -1.608130602748
 32      -0.021506909045
 33      -0.361407696905
 34      -0.000004039487
 35       0.037615850792
 36       0.746342331833
 37       0.000008416481
 38       0.039057289701
 39       0.000000041486
 40      -0.000001156817
 41       0.064079364200
 42       0.000027644649
 43       0.127193763114
 44      -0.688311364693
 45       1.608108976170
 46      -0.021482562407
 47      -0.361407313482
 48      -0.000003105961
 49       0.037839070922
 50       0.746342504733
 51       0.000006378167
 52      -0.039056951853
 53      -0.000000005293
 54       0.000001051262
 55      -0.064078355886
 56      -0.000029241259
 57      -0.073419703581
 58       0.397329002694
 59      -0.928227910924
 60       0.267787280929
 61       0.043745300805
 62       0.000000158624
 63      -0.522013187489
 64      -0.037525492451
 65      -0.000000050112
 66       0.022543533853
 67       0.000000440087
 68      -0.000000217249
 69      -0.010135990979
 70       0.036690713569
 71       0.053784429046
 72      -0.291073730286
 73       0.679983084478
 74      -0.227850237676
 75       0.091617586743
 76       0.000002449111
 77       0.437034242189
 78      -0.130141100591
 79      -0.000003953319
 80      -0.016514459612
 81      -0.000000021918
 82      -0.000000121659
 83       0.005309401421
 84       0.028387035485
 85      -0.148666654926
 86       0.535953626778
 87       0.017721449641
 88       0.057765692278
 89       0.000000313850
 90       0.202923565899
 91      -0.731607682428
 92      -0.032742718880
 93       0.062638289403
 94       0.000000621335
 95      -0.351546644801
 96       1.267387525543
 97      -0.003290801164
 98       0.103886643838
 99       0.000000984936
100       0.351543266458
101      -1.267376868503
102      -0.003289016855
103       0.103885905793
104       0.000000868646
105      -0.202934816924
106       0.731678373098
107      -0.032746410481
108       0.062638373496
109       0.000000464386
110       0.148672975071
111      -0.536027950856
112       0.017723881836
113       0.057765216840
114       0.000000238036
 Sym=     1a
 Ene= 6.20306072635632E-01
 Spin= Alpha
 Occup= 0.000000
  1      -0.056911295114
  2       0.435658584499
  3      -0.895878483689
  4      -0.306622189372
  5      -0.278994693713
  6       0.000000043760
  7       0.954669042989
  8       0.592371457695
  9      -0.000001339080
 10      -0.001942449899
 11       0.000000062901
 12       0.000000507374
 13      -0.037879889779
 14      -0.027758962551
 15       0.068463815967
 16      -0.524074927574
 17       1.077692766492
 18       0.393253692960
 19      -0.290977602441
 20      -0.000003879747
 21      -1.151963160735
 22       0.705373156998
 23       0.000010992518
 24       0.002334181173
 25      -0.000000389433
 26      -0.000000139210
 27       0.034398956360
 28      -0.040395401677
 29      -0.011550992226
 30       0.088416769183
 31      -0.181835141898
 32      -0.143717265700
 33      -0.081017552851
 34       0.000000122632
 35       0.071021252560
 36       0.227343899968
 37       0.000000986290
 38      -0.000392715937
 39       0.000000087029
 40      -0.000000174758
 41       0.009205243624
 42       0.028511121316
 43      -0.011546160608
 44       0.088382857897
 45      -0.181640643875
 46       0.143705519789
 47       0.080992568041
 48       0.000000212790
 49      -0.070975473896
 50      -0.227333691390
 51      -0.000002243916
 52      -0.000393800507
 53       0.000000112102
 54      -0.000000264115
 55       0.009203972360
 56       0.028510553474
 57       0.068455923508
 58      -0.524042023932
 59       1.077640310583
 60      -0.393252831404
 61       0.290983998464
 62       0.000002325450
 63       1.151926278956
 64      -0.705380610822
 65      -0.000007709035
 66       0.002336901734
 67      -0.000000318199
 68      -0.000000203689
 69       0.034399891550
 70      -0.040394889736
 71      -0.056910151011
 72       0.435657941986
 73      -0.895968541822
 74       0.306625311360
 75       0.279021585755
 76      -0.000000592089
 77      -0.954625069459
 78      -0.592444197986
 79       0.000002117625
 80      -0.001942463663
 81       0.000000020580
 82       0.000000552072
 83      -0.037880395519
 84      -0.027759446970
 85      -0.155708257224
 86       1.176281596721
 87       0.062373292371
 88       0.053311691259
 89      -0.000000011644
 90       0.187325118447
 91      -1.415058023132
 92      -0.079093263240
 93       0.056694267777
 94       0.000000775344
 95      -0.031621829224
 96       0.238779615974
 97       0.024533496033
 98       0.016170773237
 99      -0.000000031241
100      -0.031598380504
101       0.238698908774
102      -0.024534215393
103      -0.016165047647
104      -0.000000068640
105       0.187316499733
106      -1.415020445244
107       0.079091284418
108      -0.056691827160
109      -0.000000615139
110      -0.155716480571
111       1.176312744750
112      -0.062375381363
113      -0.053312227938
114       0.000000018231
 Sym=     1a
 Ene= 6.20317501184935E-01
 Spin= Alpha
 Occup= 0.000000
  1       0.046189973637
  2      -0.353582355870
  3       0.727009809076
  4       0.341002712772
  5       0.064154006392
  6      -0.000001395740
  7      -0.819457392364
  8      -0.402411167240
  9       0.000000840057
 10       0.001575338600
 11       0.000000276883
 12      -0.000000190026
 13      -0.001331826559
 14       0.041694478558
 15       0.026184865476
 16      -0.200442077760
 17       0.412057561188
 18       0.229003696186
 19       0.022484343354
 20      -0.000001006678
 21      -0.478705154384
 22       0.205119056487
 23       0.000004120904
 24       0.000892548141
 25      -0.000000111980
 26       0.000000253841
 27      -0.013967302447
 28      -0.030584463360
 29      -0.072381010648
 30       0.554049611274
 31      -1.139096998044
 32       0.018996484192
 33      -0.514489847899
 34      -0.000005368227
 35      -0.000367942052
 36       1.428048151113
 37       0.000013174408
 38      -0.002465761279
 39      -0.000000337960
 40      -0.000000505390
 41       0.054950491408
 42      -0.005388120077
 43      -0.072383681145
 44       0.554063446321
 45      -1.139132771610
 46      -0.019027331883
 47       0.514492088033
 48       0.000004565797
 49       0.000461558780
 50      -1.428052435344
 51      -0.000011410038
 52      -0.002465076537
 53      -0.000000297480
 54      -0.000000447609
 55       0.054950975309
 56      -0.005385015625
 57       0.026178200132
 58      -0.200410906689
 59       0.411945618270
 60      -0.228995033794
 61      -0.022496617226
 62       0.000000301170
 63       0.478688004899
 64      -0.205092385832
 65      -0.000002698426
 66       0.000895455792
 67      -0.000000054012
 68       0.000000285283
 69      -0.013970991042
 70      -0.030584496878
 71       0.046181523717
 72      -0.353539615580
 73       0.726876764399
 74      -0.340979912304
 75      -0.064143199223
 76       0.000002311215
 77       0.819407992442
 78       0.402389731263
 79      -0.000003254842
 80       0.001578531381
 81       0.000000175624
 82      -0.000000246058
 83      -0.001335999953
 84       0.041693820550
 85       0.126402697405
 86      -0.954816344435
 87      -0.066345778994
 88      -0.015574823388
 89       0.000000211436
 90       0.071653900333
 91      -0.541286523357
 92      -0.043659681150
 93      -0.001141019027
 94       0.000000192455
 95      -0.198090625447
 96       1.496181649737
 97      -0.003135258363
 98       0.102492238964
 99       0.000000935987
100      -0.198095464813
101       1.496200443545
102       0.003136928561
103      -0.102493414038
104      -0.000000848773
105       0.071637981951
106      -0.541220380104
107       0.043653856203
108       0.001140670578
109      -0.000000137571
110       0.126378022636
111      -0.954715184980
112       0.066338092804
113       0.015573907199
114      -0.000000369953
 Sym=     1a
 Ene= 6.26833194157516E-01
 Spin= Alpha
 Occup= 0.000000
  1      -0.000000000376
  2      -0.000000116453
  3      -0.000000427924
  4       0.000001630021
  5      -0.000003443815
  6       0.414974211402
  7      -0.000005090535
  8       0.000010038724
  9      -1.206001181569
 10       0.000000009658
 11      -0.001049512086
 12      -0.000597617751
 13       0.000000019286
 14       0.000000005202
 15      -0.000000071887
 16       0.000000142101
 17      -0.000002562086
 18      -0.000002797555
 19       0.000003426332
 20      -0.414965137656
 21       0.000007400918
 22      -0.000009736806
 23       1.205989673457
 24       0.000000059070
 25       0.001040361089
 26      -0.000613084923
 27      -0.000000011740
 28       0.000000013788
 29       0.000000068403
 30      -0.000000309823
 31       0.000000377343
 32      -0.000002013624
 33       0.000003306235
 34      -0.414923200348
 35       0.000005653706
 36      -0.000009337967
 37       1.205927053602
 38      -0.000000057343
 39       0.000007927084
 40       0.001209092617
 41      -0.000000140452
 42       0.000000042918
 43       0.000000022613
 44      -0.000000426426
 45       0.000000169584
 46       0.000002146857
 47      -0.000002699590
 48       0.414929862491
 49      -0.000006464381
 50       0.000007820207
 51      -1.205937687112
 52       0.000000041172
 53       0.000008832624
 54       0.001209478838
 55      -0.000000041430
 56      -0.000000021736
 57       0.000000078312
 58      -0.000000273559
 59       0.000000411724
 60       0.000001482493
 61      -0.000002760182
 62       0.414945140056
 63      -0.000004908973
 64       0.000008351219
 65      -1.205957977985
 66      -0.000000123402
 67       0.001041411667
 68      -0.000613301529
 69       0.000000107840
 70      -0.000000210044
 71       0.000000075651
 72      -0.000000413182
 73       0.000000138490
 74      -0.000002246722
 75       0.000002840325
 76      -0.414960731362
 77       0.000006310878
 78      -0.000008349452
 79       1.205981813417
 80      -0.000000062112
 81      -0.001049879596
 82      -0.000596700150
 83       0.000000046190
 84       0.000000164601
 85       0.000000075407
 86       0.000001060664
 87      -0.000000015295
 88       0.000000216957
 89      -0.025038831636
 90      -0.000000098853
 91       0.000001807206
 92       0.000000265183
 93      -0.000000259185
 94       0.025040390142
 95       0.000000453416
 96      -0.000000387143
 97       0.000000152278
 98      -0.000000179842
 99       0.025042086917
100       0.000000138182
101       0.000000654432
102      -0.000000096956
103       0.000000104196
104      -0.025041707718
105       0.000000614146
106      -0.000000894698
107      -0.000000093921
108       0.000000170088
109      -0.025039363317
110       0.000000415328
111      -0.000000376749
112       0.000000123439
113      -0.000000208410
114       0.025039002172
 Sym=     1a
 Ene= 6.74968623867241E-01
 Spin= Alpha
 Occup= 0.000000
  1       0.007610817812
  2       0.141763672436
  3       0.218510239500
  4      -0.420577295811
  5      -0.238849804429
  6       0.000000382919
  7       1.217198149398
  8       0.691567272089
  9      -0.000001066306
 10      -0.017028213297
 11      -0.000000237028
 12       0.000000322593
 13      -0.009116861523
 14      -0.015202497857
 15      -0.007615587568
 16      -0.141725681488
 17      -0.218757775815
 18       0.417040086790
 19      -0.245057389705
 20      -0.000004049754
 21      -1.206974806121
 22       0.709496303178
 23       0.000011497672
 24       0.017028039427
 25      -0.000000088812
 26      -0.000000164481
 27       0.008657194656
 28      -0.015472728654
 29      -0.007492101886
 30      -0.142572435847
 31      -0.213956283122
 32       0.003395633185
 33       0.483574368834
 34       0.000004092865
 35      -0.009392634956
 36      -1.399127737111
 37      -0.000011295961
 38       0.016998743321
 39       0.000000251159
 40      -0.000000073272
 41      -0.017687959046
 42       0.000307497296
 43       0.007505231958
 44       0.142480095541
 45       0.214448899568
 46       0.003808347973
 47       0.483571682238
 48       0.000003650342
 49      -0.011482451913
 50      -1.399197212908
 51      -0.000010537048
 52      -0.017001924578
 53      -0.000000209942
 54       0.000000151147
 55       0.017692711097
 56      -0.000217426070
 57       0.007421557547
 58       0.143136589932
 59       0.210678708952
 60       0.416853036302
 61      -0.244724295190
 62      -0.000003030577
 63      -1.205795827020
 64       0.707731571715
 65       0.000009545980
 66      -0.016990297555
 67      -0.000000021916
 68       0.000000227101
 69      -0.008588143586
 70       0.015431627697
 71      -0.007422708195
 72      -0.143122882362
 73      -0.210785429220
 74      -0.420461386785
 75      -0.238521156701
 76       0.000000910114
 77       1.216238786980
 78       0.689767272140
 79      -0.000002130467
 80       0.016989940209
 81       0.000000213549
 82      -0.000000381476
 83       0.009041486189
 84       0.015174045152
 85      -0.089904090685
 86       0.961781743338
 87       0.064199488928
 88       0.036435216727
 89      -0.000000036189
 90       0.089913751565
 91      -0.961833239787
 92      -0.063655431120
 93       0.037386667596
 94       0.000000652907
 95       0.089880143892
 96      -0.962255978924
 97      -0.000536393609
 98      -0.073842549281
 99      -0.000000610814
100      -0.089883553220
101       0.962204262188
102      -0.000558858515
103      -0.073838576861
104      -0.000000525881
105      -0.089763571523
106       0.962193655270
107      -0.063669817744
108       0.037382781712
109       0.000000471067
110       0.089782640726
111      -0.962228761229
112       0.064221589132
113       0.036434263047
114      -0.000000132085
 Sym=     1a
 Ene= 6.75671060583547E-01
 Spin= Alpha
 Occup= 0.000000
  1       0.051091299531
  2      -0.368655520915
  3       2.107367197403
  4      -0.207756735653
  5       0.213576115024
  6       0.000002585780
  7       1.122464283355
  8      -1.020397626554
  9      -0.000013210843
 10      -0.010444936440
 11      -0.000000615653
 12       0.000000053353
 13       0.042484386059
 14      -0.045462961359
 15       0.107159660476
 16      -0.773347161692
 17       4.420114267210
 18      -0.251110833813
 19      -0.116248946439
 20       0.000000332358
 21       1.430150948157
 22       0.478987341796
 23      -0.000003118925
 24      -0.021899172703
 25       0.000000128388
 26      -0.000000153414
 27       0.023565674527
 28       0.054550584247
 29      -0.158247120941
 30       1.141982666686
 31      -6.527453934581
 32       0.062647417093
 33       0.232615226832
 34       0.000001184251
 35      -0.315580320680
 36      -1.461424009584
 37      -0.000008951767
 38       0.032345655823
 39       0.000000439181
 40       0.000000066012
 41      -0.053587927427
 42      -0.011839151755
 43      -0.158242639004
 44       1.142017731159
 45      -6.527348785615
 46      -0.062639453669
 47      -0.232446394737
 48      -0.000001369559
 49       0.315578385427
 50       1.460938296609
 51       0.000009655432
 52       0.032339808910
 53       0.000000450122
 54       0.000000016043
 55      -0.053582286571
 56      -0.011836016237
 57       0.107166407772
 58      -0.773323992218
 59       4.420302415970
 60       0.251262796449
 61       0.116168955365
 62      -0.000000481300
 63      -1.430569627429
 64      -0.478741194761
 65       0.000003450328
 66      -0.021905741998
 67       0.000000089535
 68      -0.000000147411
 69       0.023561368778
 70       0.054558729081
 71       0.051088926704
 72      -0.368703826377
 73       2.107261698219
 74       0.207618136099
 75      -0.213672826781
 76      -0.000002584287
 77      -1.122068552447
 78       1.020678613405
 79       0.000013058206
 80      -0.010439304145
 81      -0.000000660205
 82       0.000000053669
 83       0.042487388290
 84      -0.045458839320
 85      -0.032805982876
 86      -0.120514285017
 87       0.004227299233
 88      -0.016898593427
 89      -0.000000161219
 90      -0.068760811459
 91      -0.253239103712
 92      -0.001762466566
 93       0.016388349403
 94       0.000000130337
 95       0.101585897949
 96       0.373475893833
 97      -0.003441045505
 98       0.014485489230
 99       0.000000173006
100       0.101549367179
101       0.373803786452
102       0.003439568163
103      -0.014511664662
104      -0.000000158793
105      -0.068797891280
106      -0.252913940692
107       0.001741062945
108      -0.016375935140
109      -0.000000079240
110      -0.032766349710
111      -0.120850432253
112      -0.004203654296
113       0.016912503797
114       0.000000106330
 Sym=     1a
 Ene= 6.75676565570201E-01
 Spin= Alpha
 Occup= 0.000000
  1      -0.153224847628
  2       1.105870629429
  3      -6.320390824984
  4       0.148508532121
  5       0.194794824665
  6       0.000000896186
  7      -0.994535433353
  8      -1.116682269528
  9      -0.000003710569
 10       0.031311676349
 11       0.000000341625
 12      -0.000000864201
 13       0.043630555541
 14       0.034169314647
 15       0.120851708349
 16      -0.872258299691
 17       4.985001714927
 18      -0.051053341565
 19       0.263793770059
 20       0.000002263582
 21       0.452572117177
 22      -1.434601673563
 23      -0.000012615204
 24      -0.024696170433
 25       0.000000228050
 26       0.000000631950
 27      -0.056380938607
 28       0.015241584325
 29       0.032369307309
 30      -0.233734604336
 31       1.335235834268
 32       0.297403118120
 33      -0.049535682481
 34      -0.000001738791
 35      -1.486825318407
 36       0.309494511215
 37       0.000009356292
 38      -0.006605587318
 39      -0.000000565882
 40       0.000000365665
 41       0.009996158228
 42      -0.061897627594
 43       0.032381706041
 44      -0.233558729339
 45       1.335580382203
 46      -0.297379812264
 47       0.050171824444
 48       0.000001913860
 49       1.486728458756
 50      -0.311343197438
 51      -0.000010036584
 52      -0.006629891372
 53      -0.000000589074
 54       0.000000259056
 55       0.010015801682
 56      -0.061897017447
 57       0.120867726136
 58      -0.872106787239
 59       4.985548601810
 60       0.051619200658
 61      -0.264143229018
 62      -0.000002260362
 63      -0.454198803388
 64       1.435616104490
 65       0.000012671168
 66      -0.024719578154
 67       0.000000118727
 68       0.000000672054
 69      -0.056396694276
 70       0.015266479172
 71      -0.153239589041
 72       1.105713673116
 73      -6.320818026368
 74      -0.149065644235
 75      -0.195138883099
 76      -0.000000875240
 77       0.996131176843
 78       1.117711944112
 79       0.000003273387
 80       0.031334767678
 81       0.000000261513
 82      -0.000000913027
 83       0.043646467389
 84       0.034188398526
 85       0.098300120539
 86       0.362382252678
 87       0.014989623914
 88       0.002077612491
 89      -0.000000115626
 90      -0.077505386222
 91      -0.285987860491
 92      -0.015517800296
 93      -0.004495747730
 94       0.000000009673
 95      -0.020703728907
 96      -0.077111989274
 97      -0.017362835289
 98      -0.002885845597
 99       0.000000004972
100      -0.020833999830
101      -0.075846303518
102       0.017361733995
103       0.002785840830
104      -0.000000115284
105      -0.077636471692
106      -0.284697781504
107       0.015432559435
108       0.004546628975
109      -0.000000021825
110       0.098427323751
111       0.361103609215
112      -0.014904001619
113      -0.002027401195
114       0.000000097839
 Sym=     1a
 Ene= 6.91937982802693E-01
 Spin= Alpha
 Occup= 0.000000
  1      -0.034439300557
  2       0.206987259825
  3      -0.768636708151
  4      -0.353625244564
  5      -0.200628620409
  6       0.000000085308
  7       0.508148120595
  8       0.288247738815
  9      -0.000000087480
 10       0.023545415625
 11       0.000000148442
 12      -0.000000143744
 13      -0.008446904152
 14      -0.014149179660
 15      -0.034424035198
 16       0.206865862897
 17      -0.767920087995
 18      -0.350585905700
 19       0.205872854623
 20       0.000003537096
 21       0.503851830325
 22      -0.295913103652
 23      -0.000005307590
 24       0.023540934519
 25       0.000000349647
 26      -0.000000323433
 27      -0.008028067466
 28       0.014392124280
 29      -0.034437322959
 30       0.206920267613
 31      -0.768264506261
 32      -0.003022893619
 33      -0.406503087743
 34      -0.000003013238
 35       0.004331435891
 36       0.584168278573
 37       0.000004658837
 38       0.023549307357
 39       0.000000125833
 40      -0.000000502364
 41       0.016470289445
 42      -0.000247954101
 43      -0.034437874057
 44       0.206940323325
 45      -0.768348689672
 46       0.003004571427
 47       0.406529672888
 48       0.000002810239
 49      -0.004231558335
 50      -0.584201053898
 51      -0.000004023416
 52       0.023548310332
 53       0.000000103422
 54      -0.000000454737
 55       0.016472361750
 56      -0.000247207240
 57      -0.034424491759
 58       0.206874380784
 59      -0.768124336659
 60       0.350603995636
 61      -0.205886602769
 62      -0.000003113548
 63      -0.503879416038
 64       0.295943820835
 65       0.000003926429
 66       0.023541755101
 67       0.000000242020
 68      -0.000000248089
 69      -0.008026652951
 70       0.014388754330
 71      -0.034438401923
 72       0.206962845562
 73      -0.768572393201
 74       0.353593047399
 75       0.200628147306
 76      -0.000000320851
 77      -0.508083193243
 78      -0.288300696967
 79       0.000000852106
 80       0.023546611197
 81       0.000000237730
 82      -0.000000131554
 83      -0.008445431178
 84      -0.014145855915
 85      -0.130108522590
 86       0.775185711998
 87       0.061036604497
 88       0.034633241843
 89      -0.000000080445
 90      -0.130098087844
 91       0.775079348510
 92       0.060509510401
 93      -0.035532337806
 94      -0.000000587975
 95      -0.130114122628
 96       0.775061697996
 97       0.000522768361
 98       0.070168945533
 99       0.000000661683
100      -0.130122095358
101       0.775113351587
102      -0.000517925666
103      -0.070173262633
104      -0.000000552577
105      -0.130094227648
106       0.775146834941
107      -0.060512342465
108       0.035534319904
109       0.000000347895
110      -0.130095818966
111       0.775135285632
112      -0.061030961433
113      -0.034633120079
114       0.000000213769
 Sym=     1a
 Ene= 7.21179308134237E-01
 Spin= Alpha
 Occup= 0.000000
  1      -0.026977276904
  2       0.056018995863
  3      -2.845118644151
  4       0.212865779115
  5       0.022789981495
  6      -0.000001018149
  7      -0.651787235431
  8       0.126448574859
  9       0.000004591384
 10       0.018979105029
 11       0.000000595905
 12      -0.000000968399
 13       0.040599811523
 14       0.085793365402
 15      -0.016738662586
 16       0.034820585776
 17      -1.765434813952
 18       0.352696157171
 19       0.360026552048
 20       0.000001020869
 21      -1.524218896809
 22      -1.976943502809
 23      -0.000007550026
 24       0.011770265816
 25      -0.000000397873
 26       0.000000343080
 27      -0.017267789604
 28      -0.076723046972
 29      -0.010248283438
 30       0.021306789226
 31      -1.081069309574
 32       0.574827005423
 33       0.070307808642
 34      -0.000002177403
 35      -2.909488926050
 36      -0.170227967903
 37       0.000012645623
 38       0.007209690759
 39      -0.000000220917
 40       0.000000482929
 41      -0.036784605274
 42      -0.061059149894
 43       0.010248188489
 44      -0.021317289727
 45       1.081123302582
 46       0.574826546293
 47       0.070327885407
 48      -0.000002157285
 49      -2.909506818868
 50      -0.170299192439
 51       0.000012404491
 52      -0.007207792869
 53       0.000000226470
 54      -0.000000478258
 55       0.036786342232
 56       0.061059481940
 57       0.016736174014
 58      -0.034799024386
 59       1.765300124291
 60       0.352700924423
 61       0.360036393390
 62       0.000001275520
 63      -1.524182743487
 64      -1.976995384969
 65      -0.000008250820
 66      -0.011769453354
 67       0.000000372906
 68      -0.000000337293
 69       0.017267080821
 70       0.076723953092
 71       0.026977757404
 72      -0.056018667446
 73       2.845164145446
 74       0.212872353886
 75       0.022796470156
 76      -0.000001393955
 77      -0.651780982274
 78       0.126427056027
 79       0.000005927229
 80      -0.018978900570
 81      -0.000000587892
 82       0.000000967805
 83      -0.040602764133
 84      -0.085794038792
 85       0.060986494640
 86      -0.166492796997
 87      -0.000976526254
 88       0.000189829272
 89       0.000000012623
 90       0.037820721239
 91      -0.103256715905
 92      -0.002258267810
 93      -0.002924848031
 94      -0.000000003791
 95       0.023155509761
 96      -0.063204026409
 97      -0.004312087616
 98      -0.000257099038
 99       0.000000022344
100      -0.023160833002
101       0.063226482773
102      -0.004310482232
103      -0.000255275458
104       0.000000006717
105      -0.037825259991
106       0.103264944822
107      -0.002258324447
108      -0.002924315372
109      -0.000000034520
110      -0.060992987127
111       0.166499083845
112      -0.000975589432
113       0.000187094063
114       0.000000024871
 Sym=     1a
 Ene= 7.21193136107896E-01
 Spin= Alpha
 Occup= 0.000000
  1      -0.003746144598
  2       0.007763579926
  3      -0.394786344849
  4      -0.279306730109
  5       0.547416193969
  6       0.000005368441
  7       1.473757314478
  8      -2.738475017891
  9      -0.000027265953
 10       0.002637415183
 11      -0.000000455196
 12      -0.000000379512
 13       0.063268136607
 14      -0.022502916252
 15       0.021493642269
 16      -0.044638623432
 17       2.266559340814
 18       0.057947232150
 19       0.407584157120
 20       0.000002638225
 21      -0.630049022562
 22      -1.866321019388
 23      -0.000010323743
 24      -0.015121697293
 25       0.000000559745
 26       0.000000497694
 27      -0.072338782982
 28       0.045829426674
 29      -0.025238214793
 30       0.052431017710
 31      -2.662585381800
 32      -0.231759298270
 33       0.185473958469
 34       0.000002846613
 35       1.177046188388
 36      -0.481188483753
 37      -0.000010361311
 38       0.017755806485
 39       0.000000774792
 40       0.000000309746
 41      -0.087999847226
 42       0.026313147417
 43       0.025238600602
 44      -0.052430831775
 45       2.662554504118
 46      -0.231778334881
 47       0.185460189839
 48       0.000002789473
 49       1.177097564533
 50      -0.481148183674
 51      -0.000010391528
 52      -0.017756816626
 53      -0.000000785456
 54      -0.000000293924
 55       0.087998276514
 56      -0.026318176878
 57      -0.021486131980
 58       0.044585764236
 59      -2.266244098255
 60       0.057956864596
 61       0.407573735642
 62       0.000002311574
 63      -0.630123759610
 64      -1.866230142943
 65      -0.000009361714
 66       0.015119006939
 67      -0.000000551850
 68      -0.000000504900
 69       0.072337040297
 70      -0.045828464150
 71       0.003740443481
 72      -0.007722461194
 73       0.394536207500
 74      -0.279326969603
 75       0.547398936771
 76       0.000005362263
 77       1.473810169713
 78      -2.738378935247
 79      -0.000027337902
 80      -0.002636383020
 81       0.000000466590
 82       0.000000383121
 83      -0.063264049509
 84       0.022505728169
 85       0.008477233886
 86      -0.023072034897
 87       0.002178926845
 88      -0.004049514518
 89      -0.000000035438
 90      -0.048582523388
 91       0.132565445312
 92      -0.000925136837
 93      -0.002762135747
 94      -0.000000011616
 95       0.057070504802
 96      -0.155788979788
 97       0.001739548483
 98      -0.000726200002
 99      -0.000000038945
100      -0.057065074679
101       0.155770722841
102       0.001745017481
103      -0.000726061406
104      -0.000000014025
105       0.048585696449
106      -0.132574386323
107      -0.000924711063
108      -0.002761800493
109      -0.000000000157
110      -0.008469341540
111       0.023062833885
112       0.002178273422
113      -0.004049516301
114      -0.000000041254
 Sym=     1a
 Ene= 7.83478057041944E-01
 Spin= Alpha
 Occup= 0.000000
  1      -0.132871258334
  2       1.091370026893
  3      -9.299974530506
  4       0.128184665032
  5       0.072772252774
  6      -0.000000217360
  7      -2.136779707199
  8      -1.212722135567
  9       0.000001735438
 10       0.032650094221
 11       0.000000073049
 12      -0.000000670437
 13       0.006876642449
 14       0.011505048864
 15       0.132869512008
 16      -1.091368151531
 17       9.299843940784
 18      -0.127086159926
 19       0.074660869797
 20       0.000000873127
 21       2.118594605598
 22      -1.244293636173
 23      -0.000018668787
 24      -0.032650658652
 25      -0.000000394823
 26       0.000000555572
 27      -0.006531679303
 28       0.011696127516
 29       0.132864467722
 30      -1.091351788528
 31       9.299379258448
 32      -0.001071141667
 33      -0.147380157760
 34      -0.000001010097
 35       0.018089174047
 36       2.456936662309
 37       0.000018263079
 38      -0.032648461140
 39      -0.000000340494
 40      -0.000000019018
 41       0.013377702698
 42      -0.000200284067
 43      -0.132865342783
 44       1.091355200513
 45      -9.299457160104
 46      -0.001087552934
 47      -0.147386177013
 48      -0.000001283052
 49       0.018231111901
 50       2.456950508220
 51       0.000019195402
 52       0.032648952924
 53       0.000000346068
 54      -0.000000008499
 55      -0.013379057964
 56       0.000199564545
 57      -0.132865049752
 58       1.091332792049
 59      -9.299595641499
 60      -0.127082992382
 61       0.074654626503
 62       0.000001410889
 63       2.118511161829
 64      -1.244276431793
 65      -0.000019304951
 66       0.032648633087
 67       0.000000478869
 68      -0.000000597288
 69       0.006531011845
 70      -0.011695560611
 71       0.132868538309
 72      -1.091351576517
 73       9.299813335918
 74       0.128183298002
 75       0.072756763070
 76      -0.000000017617
 77      -2.136756010528
 78      -1.212684249671
 79       0.000002192786
 80      -0.032649230139
 81      -0.000000011483
 82       0.000000705424
 83      -0.006874779627
 84      -0.011504071033
 85       0.113099986558
 86       0.511957330167
 87       0.011251212523
 88       0.006384751057
 89       0.000000201688
 90      -0.113092065684
 91      -0.511950389686
 92      -0.011154852434
 93       0.006551259979
 94       0.000000348035
 95      -0.113071336591
 96      -0.511929403568
 97      -0.000096149462
 98      -0.012934910987
 99       0.000000115707
100       0.113074324232
101       0.511929370805
102      -0.000095301069
103      -0.012934375346
104       0.000000166391
105       0.113098512712
106       0.511934334827
107      -0.011154096354
108       0.006550770440
109       0.000000322001
110      -0.113097510990
111      -0.511950807518
112       0.011251425110
113       0.006384914167
114       0.000000236476
 Sym=     1a
 Ene= 8.32571335029700E-01
 Spin= Alpha
 Occup= 0.000000
  1      -0.000005602161
  2       0.000009773472
  3      -0.000662039886
  4      -0.244983401018
  5       0.431744700033
  6       0.000004407661
  7       2.537011469541
  8      -4.470789035109
  9      -0.000045558559
 10       0.000007111447
 11      -0.000000422628
 12      -0.000000334722
 13       0.051774571128
 14      -0.030919531259
 15       0.000010629109
 16      -0.000030499870
 17       0.001057193073
 18       0.251342558751
 19       0.428038433291
 20       0.000002015595
 21      -2.602827767375
 22      -4.432562178234
 23      -0.000020753827
 24      -0.000012068100
 25       0.000000103794
 26       0.000000634928
 27      -0.052668410171
 28      -0.029370635919
 29      -0.000002654093
 30       0.000016487592
 31      -0.000319181013
 32      -0.496302950076
 33       0.003709455146
 34       0.000002361013
 35       5.139768203535
 36      -0.038263387869
 37      -0.000024659767
 38       0.000001383704
 39       0.000000322996
 40      -0.000000305484
 41       0.000891036829
 42       0.060295756257
 43      -0.000003603120
 44       0.000007917826
 45      -0.000423445114
 46       0.496306957857
 47      -0.003692450797
 48      -0.000002539431
 49      -5.139776339541
 50       0.038222365765
 51       0.000026096250
 52       0.000004805246
 53       0.000000319398
 54      -0.000000295082
 55       0.000892551509
 56       0.060295467309
 57       0.000009507589
 58      -0.000022493701
 59       0.001082055172
 60      -0.251347328110
 61      -0.428040000063
 62      -0.000001865793
 63       2.602852701544
 64       4.432632234934
 65       0.000019457701
 66      -0.000012509597
 67       0.000000097623
 68       0.000000640906
 69      -0.052666421812
 70      -0.029370064928
 71      -0.000004418939
 72      -0.000002479135
 73      -0.000693885392
 74       0.244997025296
 75      -0.431738860794
 76      -0.000004376676
 77      -2.537048420929
 78       4.470830982039
 79       0.000045417140
 80       0.000008743281
 81      -0.000000421427
 82      -0.000000341108
 83       0.051773865780
 84      -0.030921806027
 85      -0.000006488272
 86       0.000042350746
 87      -0.008285840967
 88       0.014602151160
 89       0.000000145052
 90       0.000021257516
 91      -0.000063395165
 92       0.008503566848
 93       0.014477713806
 94       0.000000043143
 95      -0.000002315786
 96      -0.000022764994
 97      -0.016783938919
 98       0.000126889933
 99       0.000000109603
100      -0.000004653049
101       0.000011929774
102       0.016784120940
103      -0.000123240520
104      -0.000000056474
105       0.000021999730
106      -0.000064684359
107      -0.008503381249
108      -0.014477756217
109      -0.000000089150
110      -0.000008513418
111       0.000059635087
112       0.008287172303
113      -0.014601382386
114      -0.000000152212
 Sym=     1a
 Ene= 9.76373322680054E-01
 Spin= Alpha
 Occup= 0.000000
  1      -0.042010349357
  2       0.427019475015
  3       1.169586026397
  4       0.252281319762
  5       0.152480372627
  6      -0.000000227268
  7      -0.465712546751
  8      -1.595998468439
  9      -0.000009917853
 10      -0.041279368887
 11       0.000000100578
 12       0.000000990042
 13      -0.047704462353
 14      -0.022308726378
 15      -0.058070060876
 16       0.590243558387
 17       1.616196979685
 18       0.349768705015
 19      -0.208700814832
 20      -0.000003405110
 21      -1.216272164973
 22       1.184641759877
 23       0.000015678281
 24      -0.057053091524
 25       0.000000059586
 26       0.000000604538
 27      -0.038390406795
 28       0.047620851813
 29       0.016057324595
 30      -0.163197408673
 31      -0.447139884864
 32      -0.011761069391
 33      -0.112529988441
 34      -0.000000848666
 35       1.567060848369
 36       0.444078614892
 37      -0.000002547051
 38       0.015775141725
 39      -0.000000550621
 40      -0.000000008499
 41      -0.017264752951
 42      -0.039605443736
 43      -0.016058678030
 44       0.163214428785
 45       0.447093170976
 46      -0.011754319971
 47      -0.112548988654
 48      -0.000000865240
 49       1.567042517401
 50       0.444239942538
 51      -0.000005458863
 52      -0.015776823815
 53       0.000000566227
 54      -0.000000505400
 55       0.017263020638
 56       0.039604583359
 57       0.058070870215
 58      -0.590255119932
 59      -1.616197742992
 60       0.349765407963
 61      -0.208707517416
 62      -0.000002469213
 63      -1.216371599804
 64       1.184687771649
 65       0.000010652275
 66       0.057052899399
 67       0.000000525228
 68      -0.000000983295
 69       0.038394060482
 70      -0.047623422265
 71       0.042011079479
 72      -0.427026439519
 73      -1.169512380724
 74       0.252270667945
 75       0.152491132613
 76      -0.000000508425
 77      -0.465706643034
 78      -1.596075227944
 79      -0.000006653707
 80       0.041278148234
 81      -0.000000172097
 82      -0.000000668191
 83       0.047708266426
 84       0.022309990294
 85      -0.393369727280
 86      -0.638104246327
 87       0.015087387165
 88      -0.064599066625
 89      -0.000001021802
 90      -0.543708154704
 91      -0.881951797951
 92      -0.011079381293
 93       0.032344299854
 94       0.000000349859
 95       0.150313474606
 96       0.243836843099
 97       0.085972768226
 98       0.006533967618
 99      -0.000000141299
100      -0.150336115455
101      -0.243899252272
102       0.085969595625
103       0.006535292904
104      -0.000000881707
105       0.543735539001
106       0.881986196811
107      -0.011078396958
108       0.032343955170
109       0.000000866162
110       0.393379495434
111       0.638098300530
112       0.015090354847
113      -0.064602310745
114      -0.000000720875
 Sym=     1a
 Ene= 9.76387626317776E-01
 Spin= Alpha
 Occup= 0.000000
  1       0.042800889340
  2      -0.435017805649
  3      -1.191173134331
  4      -0.265001480890
  5      -0.141240901029
  6       0.000000277809
  7       1.618073855433
  8      -0.389341656170
  9      -0.000011854629
 10       0.042048324021
 11       0.000000901958
 12      -0.000000952236
 13      -0.002091325736
 14       0.053007703091
 15      -0.014993768384
 16       0.152359806518
 17       0.417211779006
 18       0.096215144872
 19      -0.043769431884
 20      -0.000000853211
 21      -1.162779344798
 22      -1.139773179023
 23      -0.000002559497
 24      -0.014722885978
 25       0.000000125559
 26       0.000000058511
 27       0.027398303443
 28       0.033098201476
 29       0.057782248699
 30      -0.587325103328
 31      -1.608452041250
 32       0.000019159834
 33      -0.405287000684
 34      -0.000003557099
 35      -0.422067201708
 36       1.643591037461
 37       0.000016706991
 38       0.056778413822
 39       0.000001053135
 40       0.000000148472
 41      -0.059829594729
 42       0.011963977233
 43      -0.057781620713
 44       0.587316950418
 45       1.608434028944
 46       0.000040200820
 47      -0.405281329022
 48      -0.000003064621
 49      -0.422487298160
 50       1.643518115500
 51       0.000014778675
 52      -0.056777686606
 53      -0.000000964786
 54       0.000000357530
 55       0.059828264813
 56      -0.011962302084
 57       0.014993281408
 58      -0.152356108035
 59      -0.417340298718
 60       0.096219020371
 61      -0.043758533251
 62      -0.000000585430
 63      -1.162636588901
 64      -1.139567095085
 65      -0.000003624878
 66       0.014723415313
 67      -0.000000111015
 68      -0.000000558727
 69      -0.027400888703
 70      -0.033100365606
 71      -0.042800889212
 72       0.435021603415
 73       1.191320639190
 74      -0.265000604697
 75      -0.141251801532
 76       0.000000742702
 77       1.617968122163
 78      -0.389033951139
 79      -0.000012231249
 80      -0.042049606139
 81      -0.000000428669
 82       0.000001497854
 83       0.002091750105
 84      -0.053009500408
 85       0.400708614290
 86       0.650004277880
 87       0.047458232629
 88      -0.044900165004
 89      -0.000000604915
 90      -0.140304737679
 91      -0.227624198262
 92      -0.049499455455
 93      -0.071065098804
 94      -0.000000254659
 95       0.540989114435
 96       0.877620373079
 97      -0.023677534408
 98       0.025981364803
 99      -0.000000227387
100      -0.540972207953
101      -0.877587011486
102      -0.023688643313
103       0.025981422370
104       0.000000245302
105       0.140307538679
106       0.227636116083
107      -0.049499126572
108      -0.071065221847
109      -0.000000024803
110      -0.400727901132
111      -0.650050460472
112       0.047456034863
113      -0.044896516419
114       0.000000151722
 Sym=     1a
 Ene= 1.11088536766808E+00
 Spin= Alpha
 Occup= 0.000000
  1      -0.000000045734
  2       0.000000630051
  3      -0.000036562772
  4      -0.000001644886
  5       0.000001428233
  6      -0.014974146111
  7      -0.000005614738
  8      -0.000003867683
  9       0.020748899486
 10      -0.000000171708
 11       0.204070789092
 12       0.115797098997
 13       0.000001637526
 14      -0.000000595311
 15      -0.000000154133
 16       0.000001434535
 17       0.000017310808
 18       0.000001246864
 19      -0.000001065495
 20      -0.014976889322
 21      -0.000013713486
 22       0.000007709854
 23       0.020755322800
 24      -0.000003243386
 25       0.202331463045
 26      -0.118806408117
 27      -0.000000148203
 28      -0.000001740458
 29       0.000000458785
 30      -0.000004881626
 31       0.000066096420
 32       0.000001492124
 33      -0.000001414871
 34      -0.014981777302
 35      -0.000000081710
 36       0.000044890153
 37       0.020766429679
 38       0.000002979747
 39       0.001748699000
 40       0.234635162915
 41       0.000001438973
 42       0.000001439570
 43      -0.000000007923
 44       0.000000202044
 45      -0.000029189693
 46      -0.000001652714
 47       0.000001090912
 48      -0.014979966764
 49      -0.000000221641
 50      -0.000002303278
 51       0.020762342159
 52      -0.000003062911
 53      -0.001741861127
 54      -0.234632096866
 55      -0.000002029609
 56      -0.000000852260
 57      -0.000000614513
 58       0.000006449164
 59      -0.000078180468
 60      -0.000001821197
 61       0.000001525741
 62      -0.014979349598
 63       0.000050234872
 64      -0.000030424022
 65       0.020756984824
 66       0.000003175343
 67      -0.202344598691
 68       0.118811235177
 69      -0.000000392669
 70       0.000002405321
 71       0.000000363906
 72      -0.000003836957
 73       0.000060526481
 74       0.000001533123
 75      -0.000001188209
 76      -0.014977849504
 77      -0.000029677388
 78      -0.000016703140
 79       0.020755303566
 80       0.000000334731
 81      -0.204078368635
 82      -0.115801315638
 83      -0.000002143270
 84       0.000001166616
 85       0.000001160814
 86       0.000002844859
 87      -0.000001237768
 88       0.000001578964
 89      -0.247196474652
 90      -0.000006008094
 91      -0.000008040943
 92      -0.000001098967
 93       0.000001792800
 94      -0.247193519984
 95       0.000007103762
 96       0.000006512058
 97      -0.000001374907
 98       0.000002071128
 99      -0.247203668432
100       0.000003127319
101       0.000004902482
102      -0.000001123884
103       0.000002026599
104      -0.247200672661
105      -0.000009918342
106      -0.000009521683
107      -0.000000984434
108       0.000001558448
109      -0.247210265570
110       0.000004539269
111       0.000003301256
112      -0.000001592882
113       0.000001832207
114      -0.247205800133
 Sym=     1a
 Ene= 1.19504486187402E+00
 Spin= Alpha
 Occup= 0.000000
  1       0.000000931094
  2      -0.000010363303
  3       0.000113909373
  4       0.000000621009
  5      -0.000013123475
  6       0.027968593856
  7       0.000102232373
  8       0.000061179083
  9      -0.052390994738
 10       0.000000798016
 11      -0.131301743404
 12       0.003100326500
 13       0.000001992085
 14       0.000001569172
 15       0.000001210818
 16      -0.000012679894
 17       0.000065043696
 18      -0.000002160926
 19       0.000013072746
 20      -0.047393354589
 21       0.000102479706
 22      -0.000063997996
 23       0.088781401916
 24      -0.000002335870
 25       0.193374244535
 26      -0.047721087918
 27       0.000003172731
 28      -0.000002779499
 29      -0.000002052482
 30       0.000022459774
 31      -0.000224886393
 32      -0.000001049308
 33       0.000012561687
 34       0.075367366896
 35      -0.000003729635
 36      -0.000256819606
 37      -0.141209574855
 38      -0.000003237829
 39      -0.012919673260
 40      -0.303500361749
 41       0.000001253258
 42      -0.000001601834
 43      -0.000001989441
 44       0.000021071731
 45      -0.000137922853
 46       0.000000912412
 47      -0.000012576564
 48      -0.075366435153
 49       0.000000604804
 50       0.000212160696
 51       0.141206996385
 52      -0.000003547890
 53      -0.012896831648
 54      -0.303499755233
 55       0.000001261822
 56      -0.000001752694
 57       0.000001216739
 58      -0.000013461811
 59       0.000152961795
 60       0.000001728205
 61      -0.000012927234
 62       0.047395283924
 63      -0.000140660296
 64       0.000083754788
 65      -0.088785983966
 66      -0.000002597115
 67       0.193388238253
 68      -0.047709279914
 69       0.000002989884
 70      -0.000002650827
 71       0.000000681370
 72      -0.000006998435
 73       0.000030844179
 74      -0.000001884075
 75       0.000012442213
 76      -0.027972259452
 77      -0.000058813547
 78      -0.000035869603
 79       0.052399249321
 80       0.000001209486
 81      -0.131320819046
 82       0.003092914553
 83       0.000001484384
 84       0.000000878765
 85       0.000022869563
 86       0.000027812296
 87      -0.000000465668
 88       0.000000052062
 89       0.140001614536
 90       0.000027310588
 91       0.000034685538
 92      -0.000002502953
 93       0.000000875848
 94      -0.237233695873
 95      -0.000051641267
 96      -0.000062811425
 97       0.000001765245
 98      -0.000001992845
 99       0.377246342949
100      -0.000046680787
101      -0.000058444303
102      -0.000002305011
103       0.000001766183
104      -0.377242676184
105       0.000031776410
106       0.000038189596
107       0.000002042309
108      -0.000000966278
109       0.237246215585
110       0.000016383522
111       0.000020602892
112       0.000000245289
113      -0.000000093204
114      -0.140031348464
 Sym=     1a
 Ene= 1.19505482524888E+00
 Spin= Alpha
 Occup= 0.000000
  1      -0.000002023926
  2       0.000021478361
  3      -0.000143976395
  4       0.000013574182
  5       0.000003213414
  6      -0.070885051988
  7      -0.000192056365
  8      -0.000107775946
  9       0.132792898102
 10       0.000000428286
 11       0.235130334834
 12       0.164132581125
 13       0.000001224079
 14      -0.000004479908
 15       0.000001671439
 16      -0.000017677521
 17       0.000108403659
 18      -0.000014334360
 19      -0.000001396123
 20      -0.059671789756
 21       0.000153651688
 22      -0.000087799306
 23       0.111792624589
 24      -0.000003902236
 25       0.184354586232
 26      -0.160671363029
 27      -0.000000075356
 28      -0.000005643137
 29       0.000000251811
 30      -0.000002410816
 31      -0.000005514155
 32      -0.000013420922
 33      -0.000001626648
 34      -0.011216296773
 35       0.000002154219
 36       0.000021037606
 37       0.021016622575
 38       0.000001224086
 39      -0.071336523705
 40       0.045711193168
 41      -0.000000364350
 42      -0.000001458265
 43       0.000000525596
 44      -0.000005961622
 45       0.000075209501
 46       0.000013413399
 47       0.000003039175
 48       0.011214697086
 49      -0.000003468976
 50      -0.000069029161
 51      -0.021012699655
 52       0.000000967180
 53      -0.071338661753
 54       0.045693241469
 55      -0.000001124513
 56      -0.000001444593
 57       0.000001698956
 58      -0.000018621430
 59       0.000194118980
 60       0.000013953903
 61       0.000001717251
 62       0.059671802896
 63      -0.000187667418
 64       0.000110112661
 65      -0.111792479944
 66      -0.000004014884
 67       0.184343862541
 68      -0.160677895557
 69      -0.000000127077
 70      -0.000005287624
 71      -0.000002120402
 72       0.000023149432
 73      -0.000228107163
 74      -0.000013688262
 75      -0.000003108927
 76       0.070886034430
 77       0.000227727791
 78       0.000131316910
 79      -0.132794982875
 80       0.000000567748
 81       0.235121180811
 82       0.164139561105
 83       0.000001084219
 84      -0.000004421997
 85      -0.000048146414
 86      -0.000060212453
 87      -0.000001215389
 88       0.000003898711
 89      -0.354777862728
 90       0.000038963571
 91       0.000049059797
 92      -0.000001684486
 93       0.000003827600
 94      -0.298642626166
 95       0.000006396511
 96       0.000008275335
 97       0.000001386678
 98       0.000000260125
 99      -0.056141751692
100       0.000012466846
101       0.000014967436
102      -0.000001472764
103      -0.000000167880
104       0.056119347437
105       0.000043007757
106       0.000052014078
107       0.000001432987
108      -0.000003300139
109       0.298638010671
110      -0.000052734815
111      -0.000064211148
112       0.000001232539
113      -0.000003293035
114       0.354775529120
 Sym=     1a
 Ene= 1.20324162885212E+00
 Spin= Alpha
 Occup= 0.000000
  1      -0.000000034069
  2       0.000000282430
  3       0.000001157481
  4       0.000000024359
  5       0.000000150107
  6       0.000009322510
  7       0.000001376833
  8      -0.000003159139
  9      -0.000041394226
 10       0.000005210284
 11      -0.167983475240
 12       0.295863038061
 13       0.000001375994
 14       0.000002677910
 15       0.000000017797
 16      -0.000000201759
 17       0.000000026975
 18      -0.000000033678
 19       0.000000219174
 20       0.000005563365
 21      -0.000000598901
 22      -0.000003000561
 23      -0.000021965624
 24      -0.000002327189
 25      -0.172350661323
 26      -0.293338429835
 27      -0.000002975713
 28      -0.000000148184
 29      -0.000000052121
 30       0.000000486010
 31       0.000001100543
 32      -0.000000158337
 33       0.000000237158
 34      -0.000004753693
 35       0.000005043354
 36      -0.000001437350
 37       0.000026808894
 38      -0.000002890345
 39       0.340267323994
 40      -0.002500965338
 41       0.000001659819
 42      -0.000002573160
 43       0.000000045087
 44      -0.000000397547
 45      -0.000002043448
 46       0.000000187135
 47       0.000000178487
 48      -0.000006357211
 49      -0.000004081351
 50      -0.000000328042
 51       0.000008526900
 52      -0.000002928021
 53       0.340254513788
 54      -0.002526890456
 55       0.000001640158
 56      -0.000002647875
 57      -0.000000011137
 58       0.000000115393
 59       0.000000925098
 60      -0.000000162838
 61      -0.000000110149
 62      -0.000003356412
 63       0.000003146265
 64       0.000005409477
 65       0.000014100326
 66      -0.000002282457
 67      -0.172362805039
 68      -0.293379997720
 69      -0.000002905257
 70      -0.000000102307
 71       0.000000034341
 72      -0.000000283890
 73      -0.000001167935
 74       0.000000159368
 75      -0.000000085563
 76      -0.000002158586
 77      -0.000003202829
 78       0.000004885703
 79       0.000015130231
 80       0.000005219153
 81      -0.167975093727
 82       0.295901384801
 83       0.000001246964
 84       0.000002769419
 85      -0.000000180386
 86      -0.000000225218
 87       0.000000015473
 88      -0.000000034790
 89       0.000096327377
 90       0.000000259468
 91       0.000000384771
 92      -0.000000130345
 93      -0.000000217013
 94       0.000085812755
 95      -0.000000447504
 96      -0.000000616896
 97      -0.000000070148
 98       0.000000000364
 99      -0.000042810771
100       0.000000242328
101       0.000000359108
102      -0.000000293788
103      -0.000000004851
104      -0.000013039589
105      -0.000000058834
106      -0.000000130953
107      -0.000000015710
108      -0.000000032625
109      -0.000071246436
110       0.000000184401
111       0.000000230571
112      -0.000000053157
113       0.000000085583
114      -0.000050738183
 Sym=     1a
 Ene= 1.21314656120825E+00
 Spin= Alpha
 Occup= 0.000000
  1      -0.011542742063
  2       0.125301449760
  3      -1.050726146673
  4       0.178207171304
  5      -0.160200491216
  6      -0.000001380750
  7      -1.199283640127
  8      -0.640164126190
  9       0.000001061216
 10       0.003407713043
 11       0.000000872493
 12      -0.000006060604
 13       0.020872681160
 14      -0.037823801306
 15       0.037627862115
 16      -0.408440982275
 17       3.423691781950
 18      -0.187116653048
 19       0.170041845229
 20       0.000006506441
 21       3.815144785150
 22      -2.249832049388
 23      -0.000044864139
 24      -0.011121661099
 25      -0.000015128630
 26       0.000007278437
 27       0.041996133903
 28      -0.057815881185
 29      -0.026083165158
 30       0.283139213041
 31      -2.373197418445
 32      -0.174119105008
 33       0.172845330297
 34      -0.000000552536
 35       0.003999961685
 36      -3.070424868945
 37      -0.000018108296
 38       0.007699227018
 39      -0.000000069005
 40       0.000013213246
 41       0.048754478760
 42      -0.029528851217
 43      -0.026081823954
 44       0.283126017995
 45      -2.372996943178
 46       0.174135370989
 47      -0.172839918306
 48      -0.000000044576
 49      -0.004311875003
 50       3.070284347847
 51       0.000019819229
 52       0.007698749725
 53       0.000005147235
 54       0.000007394907
 55       0.048753139622
 56      -0.029527593926
 57       0.037622923176
 58      -0.408400365184
 59       3.424233333147
 60       0.187102219215
 61      -0.170040968749
 62      -0.000005045070
 63      -3.815260326019
 64       2.249817455808
 65       0.000037432154
 66      -0.011125066221
 67      -0.000014705539
 68       0.000008097406
 69       0.041996769519
 70      -0.057814636144
 71      -0.011546798024
 72       0.125342224847
 73      -1.050774859303
 74      -0.178217462263
 75       0.160193117823
 76       0.000000303403
 77       1.199344175637
 78       0.640393501784
 79       0.000002674792
 80       0.003406604878
 81      -0.000007413147
 82      -0.000005652207
 83       0.020872540786
 84      -0.037827149393
 85      -0.282041662182
 86      -0.350368422709
 87      -0.007694905244
 88       0.029607811759
 89       0.000002511692
 90       0.919243298031
 91       1.141980365202
 92      -0.025677369149
 93       0.007256416006
 94       0.000021400778
 95      -0.637230002005
 96      -0.791698508305
 97       0.022936061942
 98       0.017733218973
 99      -0.000016806050
100      -0.637213690071
101      -0.791672701586
102      -0.022938222413
103      -0.017730864974
104       0.000009754539
105       0.919230213409
106       1.141945507136
107       0.025676367438
108      -0.007258666802
109      -0.000019131801
110      -0.282072724527
111      -0.350419149445
112       0.007692648758
113      -0.029606237479
114      -0.000011552302
 Sym=     1a
 Ene= 1.21315304438777E+00
 Spin= Alpha
 Occup= 0.000000
  1       0.036782208110
  2      -0.399259855978
  3       3.346993888043
  4      -0.175191521643
  5      -0.181423717930
  6      -0.000004919534
  7       3.760279211350
  8       2.146507245954
  9       0.000006533870
 10      -0.010879667534
 11       0.000015884673
 12       0.000009292148
 13       0.045621925284
 14       0.053542464102
 15      -0.008395315150
 16       0.091131178475
 17      -0.763828010058
 18       0.165336451905
 19       0.172515907011
 20      -0.000000701561
 21      -0.870316709198
 22       0.469495500702
 23       0.000010517759
 24       0.002470226778
 25       0.000000611196
 26      -0.000008634945
 27       0.025627543211
 28       0.032415513583
 29      -0.028387939014
 30       0.308164242535
 31      -2.583172016133
 32       0.162558243972
 33       0.185506953808
 34      -0.000001555776
 35      -0.049797236664
 36      -3.341493006288
 37      -0.000022591451
 38       0.008375575690
 39      -0.000003883560
 40       0.000009817632
 41       0.053918330822
 42       0.025663738754
 43      -0.028391219544
 44       0.308194564376
 45      -2.583123011603
 46      -0.162537801225
 47      -0.185519905510
 48       0.000002979174
 49       0.049548857336
 50       3.341587153328
 51       0.000016733989
 52       0.008374167459
 53      -0.000001726863
 54       0.000014202469
 55       0.053919746799
 56       0.025663574524
 57      -0.008396783641
 58       0.091146495181
 59      -0.763849439468
 60      -0.165344835232
 61      -0.172522396697
 62       0.000000363738
 63       0.870271237774
 64      -0.469693738153
 65      -0.000008663662
 66       0.002469829841
 67       0.000003202427
 68      -0.000003441414
 69       0.025628381035
 70       0.032417746133
 71       0.036777554218
 72      -0.399217616721
 73       3.347338988917
 74       0.175169478218
 75       0.181432655995
 76       0.000003627357
 77      -3.760231583731
 78      -2.146599327915
 79      -0.000000349518
 80      -0.010882599110
 81       0.000014921459
 82       0.000004606739
 83       0.045622222121
 84       0.053540629171
 85       0.898612141508
 86       1.116357862781
 87      -0.026525344404
 88      -0.004384767045
 89      -0.000023809857
 90      -0.205110226480
 91      -0.254813311674
 92      -0.010335247039
 93      -0.028982953618
 94      -0.000006075650
 95      -0.693572879132
 96      -0.861677373141
 97      -0.020806615777
 98       0.019640954122
 99      -0.000012047993
100      -0.693594132242
101      -0.861714057178
102       0.020805704087
103      -0.019642245907
104       0.000018989087
105      -0.205121412210
106      -0.254831411640
107       0.010332735874
108       0.028978457158
109       0.000005215513
110       0.898591752045
111       1.116317949656
112       0.026524706857
113       0.004386500441
114       0.000018463456
 Sym=     1a
 Ene= 1.25388560741466E+00
 Spin= Alpha
 Occup= 0.000000
  1      -0.000000349272
  2       0.000003891367
  3      -0.000040137340
  4       0.000002194663
  5       0.000000898775
  6      -0.023905151899
  7      -0.000040343235
  8      -0.000024809924
  9       0.080465791146
 10       0.000004032200
 11      -0.058685705453
 12       0.272764323632
 13       0.000001429025
 14       0.000001316538
 15       0.000000193646
 16      -0.000002228566
 17       0.000028201190
 18      -0.000002267991
 19      -0.000000858133
 20      -0.036445241096
 21       0.000026322941
 22      -0.000016377400
 23       0.122696776663
 24      -0.000003515836
 25      -0.007451519249
 26      -0.264333358873
 27      -0.000001953814
 28      -0.000001657997
 29       0.000000281404
 30      -0.000002981717
 31       0.000013935644
 32      -0.000002047055
 33      -0.000002099092
 34       0.060333665598
 35      -0.000001469343
 36       0.000022444472
 37      -0.203150623868
 38      -0.000003331370
 39       0.032942100777
 40      -0.211244723434
 41      -0.000002311254
 42      -0.000001609838
 43       0.000000016515
 44      -0.000000270122
 45       0.000012180160
 46       0.000002648338
 47      -0.000000333532
 48       0.060335658620
 49       0.000000159589
 50      -0.000010420839
 51      -0.203158155054
 52       0.000003006004
 53      -0.032896186628
 54       0.211251502181
 55       0.000001430246
 56       0.000000964164
 57       0.000000341348
 58      -0.000003649628
 59       0.000019881911
 60       0.000002572501
 61       0.000000811401
 62      -0.036443976058
 63      -0.000027365983
 64       0.000011384967
 65       0.122692245170
 66       0.000002958190
 67       0.007429727652
 68       0.264282769521
 69       0.000002049848
 70       0.000000234547
 71      -0.000000448127
 72       0.000004832216
 73      -0.000032761677
 74      -0.000002865273
 75      -0.000000990722
 76      -0.023902660687
 77       0.000042740626
 78       0.000019311294
 79       0.080466409486
 80      -0.000003832362
 81       0.058671983962
 82      -0.272712772813
 83      -0.000001975565
 84      -0.000002688692
 85      -0.000009552459
 86      -0.000011813552
 87      -0.000000351733
 88       0.000001031736
 89      -0.140295487228
 90       0.000005823250
 91       0.000006972484
 92      -0.000001259766
 93       0.000001642658
 94      -0.213900540057
 95       0.000004285211
 96       0.000005621879
 97       0.000001948761
 98      -0.000003179347
 99       0.354162093711
100       0.000002341750
101       0.000002563368
102       0.000001549982
103      -0.000002671705
104       0.354173144803
105       0.000006407654
106       0.000008201912
107      -0.000000730739
108       0.000000972586
109      -0.213891976222
110      -0.000009831366
111      -0.000012545160
112      -0.000001054173
113       0.000000562573
114      -0.140282761280
 Sym=     1a
 Ene= 1.25390078580553E+00
 Spin= Alpha
 Occup= 0.000000
  1       0.000000026645
  2      -0.000000151341
  3      -0.000014704833
  4      -0.000001720092
  5       0.000002479108
  6      -0.055871427141
  7      -0.000007555219
  8      -0.000004777092
  9       0.188138714138
 10      -0.000001845685
 11       0.226126620420
 12      -0.002570696248
 13       0.000000890706
 14      -0.000001394637
 15      -0.000000204835
 16       0.000002272347
 17      -0.000024342878
 18       0.000000511590
 19      -0.000002466436
 20       0.048628928703
 21      -0.000027001090
 22       0.000015970021
 23      -0.163755869138
 24       0.000001334707
 25      -0.234566075345
 26      -0.063563562086
 27      -0.000001937990
 28       0.000001708280
 29       0.000000398316
 30      -0.000004413461
 31       0.000039714717
 32       0.000000681227
 33      -0.000002740457
 34       0.007235038348
 35      -0.000002996758
 36       0.000048296736
 37      -0.024380060481
 38       0.000002052332
 39      -0.287600501353
 40      -0.023168753685
 41      -0.000002303488
 42       0.000002272602
 43       0.000000352576
 44      -0.000003848168
 45       0.000029780467
 46      -0.000000829955
 47       0.000002372762
 48       0.007238826925
 49      -0.000001953528
 50      -0.000041480462
 51      -0.024379203024
 52      -0.000002130353
 53       0.287623903042
 54       0.023194691934
 55       0.000001018877
 56      -0.000002097279
 57      -0.000000428008
 58       0.000004613698
 59      -0.000031501689
 60      -0.000001220259
 61       0.000002290440
 62       0.048626058629
 63       0.000032949294
 64      -0.000021298450
 65      -0.163742972407
 66      -0.000000680735
 67       0.234538884684
 68       0.063546914495
 69       0.000000725021
 70      -0.000000543199
 71      -0.000000207433
 72       0.000002117878
 73      -0.000000705133
 74      -0.000000101779
 75      -0.000002290844
 76      -0.055868941314
 77       0.000008528900
 78       0.000003722574
 79       0.188125033531
 80       0.000002348309
 81      -0.226123564833
 82       0.002591098279
 83      -0.000001847463
 84       0.000001273734
 85      -0.000001354719
 86      -0.000001157531
 87      -0.000001577434
 88       0.000002196738
 89      -0.327993776382
 90      -0.000006205965
 91      -0.000007439695
 92       0.000001543223
 93      -0.000002357259
 94       0.285489692055
 95       0.000009678737
 96       0.000012189419
 97      -0.000000036359
 98      -0.000000701725
 99       0.042485075423
100       0.000008833186
101       0.000011167709
102      -0.000000113153
103      -0.000000003617
104       0.042507178983
105      -0.000008134500
106      -0.000010296839
107       0.000000633955
108      -0.000001920720
109       0.285471523176
110      -0.000002216109
111      -0.000003090975
112      -0.000002261679
113       0.000002498233
114      -0.327975546740
 Sym=     1a
 Ene= 1.45744078440430E+00
 Spin= Alpha
 Occup= 0.000000
  1      -0.014343710324
  2       0.329046694021
  3     -15.653030616229
  4       0.045896421952
  5       0.026029694310
  6      -0.000000188008
  7      -7.243508293148
  8      -4.110605960233
  9       0.000006124175
 10       0.066527304364
 11      -0.000000305322
 12      -0.000000284837
 13      -0.032038308175
 14      -0.053622536336
 15       0.014342715502
 16      -0.329052561890
 17      15.652804117489
 18      -0.045473902820
 19       0.026740167781
 20       0.000000181734
 21       7.181774722286
 22      -4.217658272760
 23      -0.000064990546
 24      -0.066514066108
 25      -0.000000416271
 26       0.000000802920
 27       0.030418527079
 28      -0.054551662135
 29       0.014342379539
 30      -0.329084057633
 31      15.652690349930
 32      -0.000412912578
 33      -0.052742394931
 34      -0.000000475191
 35       0.062030438139
 36       8.328656209652
 37       0.000063616417
 38      -0.066502046468
 39      -0.000000408690
 40      -0.000000720302
 41      -0.062463639551
 42       0.000937813452
 43      -0.014343137479
 44       0.329081263818
 45     -15.652548968946
 46      -0.000383451369
 47      -0.052741308992
 48      -0.000000597720
 49       0.061666726261
 50       8.328603672122
 51       0.000064072802
 52       0.066513994561
 53      -0.000000182291
 54      -0.000001322503
 55       0.062466468842
 56      -0.000929287161
 57      -0.014340871481
 58       0.329040236088
 59     -15.653432656731
 60      -0.045466452804
 61       0.026743364426
 62       0.000000396361
 63       7.181872040341
 64      -4.217597653844
 65      -0.000062594459
 66       0.066521415511
 67       0.000003410837
 68      -0.000002316830
 69      -0.030421761752
 70       0.054557012467
 71       0.014341933599
 72      -0.329043528764
 73      15.653453505835
 74       0.045884784306
 75       0.026051522833
 76      -0.000000124962
 77      -7.243596503764
 78      -4.110685266310
 79       0.000009254874
 80      -0.066514808232
 81       0.000001040179
 82       0.000001610929
 83       0.032034395142
 84       0.053623198339
 85      -0.898698038387
 86      -0.968442214906
 87       0.012351164220
 88       0.006976058868
 89      -0.000000105945
 90       0.898728780438
 91       0.968485451258
 92      -0.012242515249
 93       0.007189207010
 94      -0.000001316372
 95       0.898769920573
 96       0.968596338447
 97      -0.000130683958
 98      -0.014213544131
 99       0.000001321547
100      -0.898761263906
101      -0.968593102565
102      -0.000112007816
103      -0.014207667010
104      -0.000000935783
105      -0.898699540040
106      -0.968426560606
107      -0.012233973159
108       0.007190618215
109       0.000002165981
110       0.898704485616
111       0.968432636850
112       0.012347847944
113       0.006992794294
114       0.000001106801
 Sym=     1a
 Ene= 1.58180985599142E+00
 Spin= Alpha
 Occup= 0.000000
  1       0.005343582770
  2      -0.070715380343
  3       0.176958868549
  4       0.098264347831
  5       0.055746290782
  6      -0.000000287129
  7      -0.174112521267
  8      -0.098740571092
  9       0.000003504376
 10      -0.170166884674
 11       0.000000184439
 12       0.000000128676
 13       0.118185467702
 14       0.197891074715
 15       0.005345155485
 16      -0.070737742243
 17       0.177515500731
 18       0.097407431748
 19      -0.057204144221
 20      -0.000000700077
 21      -0.172224385799
 22       0.101193332557
 23      -0.000001376876
 24      -0.170160866095
 25      -0.000003962074
 26       0.000002709189
 27       0.112276648116
 28      -0.201308473674
 29       0.005347342087
 30      -0.070751985498
 31       0.177501549082
 32       0.000822468165
 33       0.112935179536
 34       0.000001114658
 35      -0.001514617792
 36      -0.199609920724
 37      -0.000005606143
 38      -0.170152366489
 39      -0.000000762953
 40       0.000003435749
 41      -0.230485039938
 42       0.003449410080
 43       0.005347111647
 44      -0.070742847597
 45       0.176938794405
 46      -0.000848394598
 47      -0.112936287706
 48      -0.000001088637
 49       0.001487548707
 50       0.199893633115
 51       0.000004805602
 52      -0.170149892198
 53       0.000000197545
 54       0.000003362216
 55      -0.230483322379
 56       0.003397767698
 57       0.005344968090
 58      -0.070725596013
 59       0.177087204809
 60      -0.097388772483
 61       0.057243541835
 62       0.000000559122
 63       0.172428025456
 64      -0.101428852318
 65       0.000002911379
 66      -0.170166268484
 67      -0.000003786719
 68       0.000002447804
 69       0.112327438040
 70      -0.201282611541
 71       0.005344067005
 72      -0.070725175019
 73       0.177568204294
 74      -0.098239208631
 75      -0.055789588563
 76       0.000000404807
 77       0.173794262749
 78       0.098732871659
 79      -0.000004242678
 80      -0.170173583969
 81      -0.000000562043
 82       0.000000967191
 83       0.118238684904
 84       0.197866078225
 85      -0.210842019025
 86      -0.052985395957
 87       0.187758676761
 88       0.106538116981
 89      -0.000001476697
 90      -0.210781176865
 91      -0.052911200642
 92       0.186156551404
 93      -0.109300720346
 94      -0.000000500056
 95      -0.210747641789
 96      -0.052863921389
 97       0.001569810686
 98       0.215854987958
 99       0.000003177441
100      -0.210775635321
101      -0.052894899086
102      -0.001625822063
103      -0.215854740172
104      -0.000002905179
105      -0.210823757624
106      -0.052956243257
107      -0.186136095166
108       0.109348876492
109       0.000000035175
110      -0.210820317919
111      -0.052957447062
112      -0.187737735532
113      -0.106583327951
114       0.000001672274
 Sym=     1a
 Ene= 1.58485524406976E+00
 Spin= Alpha
 Occup= 0.000000
  1       0.000005533877
  2      -0.000034477165
  3      -0.000898038446
  4      -0.097009904297
  5       0.170926089308
  6       0.000001739603
  7       0.180651868370
  8      -0.318929867585
  9      -0.000003297666
 10      -0.000018690959
 11      -0.000002151633
 12      -0.000000996457
 13       0.225130137177
 14      -0.134503936056
 15       0.000007327271
 16      -0.000072307066
 17       0.000438289046
 18      -0.099556287449
 19      -0.169478861577
 20      -0.000000782835
 21       0.186080785995
 22       0.315938198599
 23       0.000001368230
 24      -0.000021943306
 25      -0.000000214842
 26      -0.000002379543
 27       0.229010977152
 28       0.127776076276
 29      -0.000002047662
 30      -0.000000142629
 31       0.000836838841
 32       0.196602118566
 33      -0.001441600722
 34      -0.000000955928
 35      -0.367041296790
 36       0.003033813650
 37       0.000001811906
 38      -0.000019437054
 39      -0.000002074816
 40       0.000001271490
 41      -0.003942420933
 42      -0.262223714188
 43       0.000000287737
 44       0.000000098810
 45      -0.000674381957
 46       0.196601081869
 47      -0.001463996570
 48      -0.000000984086
 49      -0.367030035446
 50       0.003049397694
 51       0.000001901522
 52      -0.000012767335
 53       0.000001919437
 54      -0.000001371800
 55       0.003885594591
 56       0.262220406646
 57      -0.000005738043
 58       0.000055393928
 59      -0.000415039281
 60      -0.099579887711
 61      -0.169470330887
 62      -0.000000755784
 63       0.186150631635
 64       0.315957128855
 65       0.000001399711
 66      -0.000014804248
 67       0.000000072857
 68       0.000002110983
 69      -0.228999019281
 70      -0.127825118468
 71      -0.000001978089
 72       0.000008126843
 73       0.000839652772
 74      -0.097032474582
 75       0.170913994563
 76       0.000001738925
 77       0.180724776624
 78      -0.318912964053
 79      -0.000003179855
 80      -0.000021848541
 81       0.000002144150
 82       0.000000832294
 83      -0.225113681252
 84       0.134545031980
 85       0.000000498959
 86      -0.000002237981
 87      -0.127714458654
 88       0.225048960176
 89       0.000002322121
 90       0.000100076201
 91       0.000073826908
 92      -0.131071208081
 93      -0.223130658900
 94      -0.000000958744
 95      -0.000011536407
 96       0.000003882191
 97       0.258856987349
 98      -0.001902183477
 99      -0.000001291946
100      -0.000035426047
101      -0.000040890476
102       0.258844271821
103      -0.001920960325
104      -0.000001324226
105      -0.000146494526
106      -0.000085174845
107      -0.131128886888
108      -0.223136126334
109      -0.000000998387
110      -0.000046498951
111       0.000002340308
112      -0.127777424822
113       0.225037266161
114       0.000002250868
 Sym=     1a
 Ene= 1.61099449161545E+00
 Spin= Alpha
 Occup= 0.000000
  1      -0.000000095137
  2       0.000000617673
  3       0.000000540748
  4       0.000000515166
  5       0.000000566932
  6       0.004118202514
  7      -0.000004103994
  8       0.000004111214
  9      -0.788962012148
 10       0.000000470920
 11      -0.126393041151
 12      -0.071723185859
 13      -0.000000329205
 14       0.000002082340
 15      -0.000000024210
 16      -0.000000030808
 17       0.000002109578
 18       0.000000560081
 19      -0.000000340844
 20      -0.004117371277
 21       0.000002936929
 22      -0.000005371847
 23       0.788951037398
 24      -0.000002090502
 25       0.125313906204
 26      -0.073588468815
 27       0.000001120866
 28      -0.000003131700
 29      -0.000000172796
 30       0.000001277188
 31      -0.000002061967
 32      -0.000000315092
 33       0.000000684891
 34      -0.004110743546
 35       0.000005171980
 36      -0.000006387472
 37       0.788968919015
 38       0.000002913807
 39       0.001087209476
 40       0.145324620741
 41       0.000000136334
 42       0.000000671474
 43      -0.000000059254
 44       0.000000235043
 45       0.000001366470
 46      -0.000000233041
 47      -0.000000665587
 48       0.004111917224
 49      -0.000002565932
 50       0.000006351274
 51      -0.788953407451
 52       0.000002162291
 53       0.001061444106
 54       0.145321384429
 55      -0.000000654298
 56       0.000000813114
 57      -0.000000207353
 58       0.000001547942
 59      -0.000002847076
 60      -0.000000478864
 61       0.000000292798
 62       0.004114177197
 63      -0.000003906185
 64       0.000005751209
 65      -0.788997354294
 66      -0.000000537952
 67       0.125320531538
 68      -0.073596484861
 69       0.000000354660
 70      -0.000001758847
 71      -0.000000163560
 72       0.000001180267
 73      -0.000002399411
 74      -0.000000688182
 75      -0.000000034853
 76      -0.004115991470
 77       0.000005176714
 78      -0.000006688513
 79       0.788995050399
 80       0.000001288013
 81      -0.126389583720
 82      -0.071742844489
 83      -0.000000622661
 84       0.000001337690
 85      -0.000000983738
 86       0.000000212123
 87       0.000003231261
 88      -0.000002330829
 89       0.406709432943
 90      -0.000001477028
 91       0.000000075805
 92      -0.000000703255
 93       0.000002210704
 94      -0.406711733814
 95       0.000000016003
 96       0.000000570507
 97      -0.000001996990
 98       0.000004188145
 99      -0.406742870340
100      -0.000000948773
101       0.000000298763
102       0.000002024959
103      -0.000004436917
104       0.406730000745
105       0.000000562622
106       0.000000816774
107       0.000001052933
108      -0.000002431388
109       0.406741149927
110       0.000000037021
111       0.000000611782
112      -0.000003082425
113       0.000002366833
114      -0.406732956189
 Sym=     1a
 Ene= 1.67487732344007E+00
 Spin= Alpha
 Occup= 0.000000
  1       0.042147566478
  2      -0.307954755307
  3       0.170225741956
  4      -0.085839217914
  5      -0.048629174644
  6      -0.000000055046
  7       0.075702279179
  8       0.042177060974
  9      -0.000003859818
 10      -0.328472887706
 11      -0.000002673855
 12       0.000002897660
 13      -0.089385960180
 14      -0.149846108700
 15       0.042165278819
 16      -0.308057191545
 17       0.170242986477
 18      -0.085129848329
 19       0.049898455565
 20       0.000001338727
 21       0.075069546742
 22      -0.043617207359
 23       0.000005184845
 24      -0.328524939302
 25      -0.000000221019
 26       0.000004356085
 27      -0.084862474444
 28       0.152433089415
 29       0.042207183653
 30      -0.308324098372
 31       0.169036404658
 32      -0.000769113416
 33      -0.098762455746
 34      -0.000001243243
 35       0.001189484295
 36       0.087023034469
 37       0.000001696015
 38      -0.328595601024
 39      -0.000005647769
 40       0.000003495230
 41       0.174507310310
 42      -0.002536684808
 43       0.042205157531
 44      -0.308296365262
 45       0.168945936850
 46       0.000746547751
 47       0.098742227427
 48       0.000000388966
 49      -0.000648901345
 50      -0.086797336510
 51      -0.000005835518
 52      -0.328611474460
 53      -0.000001626014
 54       0.000003715964
 55       0.174464452588
 56      -0.002546923084
 57       0.042174811248
 58      -0.308141367669
 59       0.169361200255
 60       0.085164789974
 61      -0.049907812481
 62      -0.000000053885
 63      -0.074999469456
 64       0.043624258055
 65       0.000000313293
 66      -0.328519311950
 67      -0.000001075162
 68       0.000003167443
 69      -0.084897466838
 70       0.152474767037
 71       0.042156662152
 72      -0.308037858677
 73       0.170270075632
 74       0.085839157873
 75       0.048669622244
 76      -0.000000379917
 77      -0.075669263960
 78      -0.042721637130
 79       0.000002492980
 80      -0.328486259612
 81      -0.000005494725
 82       0.000007595908
 83      -0.089404331512
 84      -0.149845577597
 85       0.020296637110
 86      -0.039288671556
 87      -0.026461111638
 88      -0.014745884616
 89       0.000002177712
 90       0.020315360191
 91      -0.039231857145
 92      -0.026217828823
 93       0.015078829364
 94      -0.000003770785
 95       0.020459755901
 96      -0.039072292502
 97      -0.000383518794
 98      -0.030219292638
 99       0.000000042042
100       0.020389719122
101      -0.039113252108
102       0.000272485816
103       0.030185053677
104       0.000003621426
105       0.020386320176
106      -0.039187693637
107       0.026243166186
108      -0.015102696252
109      -0.000001119935
110       0.020350761324
111      -0.039225524475
112       0.026420900257
113       0.014814185131
114      -0.000000934310
 Sym=     1a
 Ene= 1.67781555446458E+00
 Spin= Alpha
 Occup= 0.000000
  1       0.008369418873
  2      -0.053461143371
  3       0.280721940799
  4       0.115393992029
  5      -0.152609291131
  6      -0.000001406256
  7      -0.436501226039
  8       0.652148538964
  9       0.000008281635
 10      -0.066303050089
 11       0.000002776839
 12      -0.000005159687
 13       0.075533577692
 14       0.077270748727
 15      -0.018188011981
 16       0.116170713323
 17      -0.611675043161
 18      -0.121949553414
 19      -0.099984819163
 20       0.000000716011
 21       0.417362042850
 22       0.462897407895
 23       0.000006570072
 24       0.144171725013
 25       0.000006230025
 26       0.000001874699
 27      -0.128598049023
 28       0.190102602680
 29       0.026539940007
 30      -0.169552061877
 31       0.893716958231
 32       0.042284658422
 33       0.079256635851
 34      -0.000000631322
 35      -0.173616545240
 36      -0.181347933042
 37      -0.000006378807
 38      -0.210453219539
 39      -0.000001412807
 40       0.000005047284
 41      -0.333618023749
 42       0.010462905071
 43      -0.026532675818
 44       0.169501117353
 45      -0.893711344720
 46       0.042222559938
 47       0.079274581465
 48      -0.000000865439
 49      -0.173110716320
 50      -0.181362284293
 51      -0.000007834635
 52       0.210406972697
 53       0.000001132044
 54      -0.000004444872
 55       0.333638145308
 56      -0.010535654443
 57       0.018180977728
 58      -0.116142670616
 59       0.612251570969
 60      -0.121958858452
 61      -0.100001756898
 62       0.000000501287
 63       0.417303178308
 64       0.462909635731
 65       0.000005038961
 66      -0.144183970613
 67      -0.000005514611
 68      -0.000002485034
 69       0.128568064102
 70      -0.190092098933
 71      -0.008353604742
 72       0.053366060867
 73      -0.281238228558
 74       0.115428024904
 75      -0.152615306575
 76      -0.000001231465
 77      -0.436475266698
 78       0.652167499434
 79       0.000010049201
 80       0.066232164570
 81      -0.000002595014
 82       0.000005311464
 83      -0.075514262140
 84      -0.077313572813
 85      -0.093510099472
 86       0.003215640669
 87       0.114810310758
 88      -0.000026802704
 89      -0.000001687714
 90       0.203476355610
 91      -0.006989335822
 92      -0.209686159610
 93       0.071928590461
 94      -0.000002672595
 95      -0.296942321885
 96       0.010256574550
 97       0.014872732642
 98       0.316931464231
 99       0.000007293405
100       0.296942953300
101      -0.010260623927
102       0.014709039495
103       0.316935837321
104       0.000008442061
105      -0.203495301784
106       0.006947873489
107      -0.209699226698
108       0.071849922595
109      -0.000001715898
110       0.093533408740
111      -0.003184826752
112       0.114844004957
113      -0.000106129307
114      -0.000003174909
 Sym=     1a
 Ene= 1.67782100939270E+00
 Spin= Alpha
 Occup= 0.000000
  1       0.025816007158
  2      -0.164913182204
  3       0.869150344661
  4       0.037041497805
  5       0.091611934540
  6       0.000001779857
  7      -0.029833881076
  8      -0.308030806982
  9       0.000005620123
 10      -0.204721519947
 11      -0.000000687628
 12       0.000002000847
 13       0.159516194503
 14       0.282934683252
 15       0.020145448503
 16      -0.128696548494
 17       0.678336838839
 18      -0.015555480596
 19      -0.145788058363
 20      -0.000002036595
 21       0.159622399985
 22       0.545590542792
 23      -0.000002750443
 24      -0.159743401027
 25      -0.000002013502
 26       0.000006686135
 27       0.107949637228
 28      -0.229900827184
 29       0.005667718356
 30      -0.036208443356
 31       0.191374119130
 32      -0.194791175524
 33       0.018471649047
 34       0.000000700842
 35       0.804026272882
 36      -0.044929408238
 37      -0.000006805478
 38      -0.044968632987
 39       0.000006359695
 40       0.000001116472
 41      -0.071727730523
 42      -0.024839980842
 43      -0.005671692755
 44       0.036231050726
 45      -0.191158897734
 46      -0.194784841680
 47       0.018454436534
 48       0.000000927539
 49       0.804062406576
 50      -0.044932156431
 51      -0.000004934101
 52       0.044992592272
 53      -0.000006322535
 54      -0.000001000864
 55       0.071713753970
 56       0.024859302391
 57      -0.020142654696
 58       0.128684983060
 59      -0.678553118024
 60      -0.015559837886
 61      -0.145793436457
 62      -0.000001753875
 63       0.159613567111
 64       0.545544281639
 65      -0.000001193323
 66       0.159748162589
 67       0.000001049022
 68      -0.000006306251
 69      -0.107943286451
 70       0.229887618573
 71      -0.025820689011
 72       0.164944539386
 73      -0.869169784691
 74       0.037018980109
 75       0.091629248613
 76       0.000001540930
 77      -0.029713970445
 78      -0.308227810113
 79       0.000003843495
 80       0.204742698638
 81       0.000001495178
 82      -0.000001874570
 83      -0.159533776143
 84      -0.282911945217
 85      -0.288930716500
 86       0.009956910753
 87       0.259202955788
 88       0.168225170841
 89      -0.000006406264
 90      -0.225411342763
 91       0.007824470553
 92       0.187292903148
 93      -0.156370899846
 94       0.000002872788
 95      -0.063475512721
 96       0.002189398484
 97      -0.057741061359
 98       0.068208377799
 99       0.000002913926
100       0.063467245328
101      -0.002206890292
102      -0.057707852294
103       0.068197193265
104       0.000001339983
105       0.225416881321
106      -0.007806663484
107       0.187268577633
108      -0.156382735217
109       0.000001796741
110       0.288930457544
111      -0.009954520748
112       0.259172953608
113       0.168275749442
114      -0.000005256472
 Sym=     1a
 Ene= 1.69369484797065E+00
 Spin= Alpha
 Occup= 0.000000
  1      -0.050105634490
  2       0.290624413492
  3       1.491735127030
  4       0.065963339456
  5      -0.025547321711
  6      -0.000139672170
  7      -0.066642424947
  8       0.368570637406
  9      -0.000667067419
 10       0.123637495357
 11      -0.000902251116
 12       0.001461060559
 13      -0.085764431481
 14       0.041932146503
 15       0.042903072510
 16      -0.248800029384
 17      -1.278243106721
 18      -0.077467824769
 19      -0.056259990581
 20      -0.000255050744
 21       0.195130057187
 22       0.542140069437
 23      -0.001225718326
 24      -0.105739215267
 25      -0.000818154232
 26      -0.001156944820
 27       0.136495316680
 28       0.068243866953
 29       0.007173722608
 30      -0.041598224384
 31      -0.214041430103
 32      -0.142494864069
 33      -0.005325353863
 34       0.000394833811
 35       0.919713232905
 36      -0.024748692113
 37       0.001894323097
 38      -0.017653490306
 39       0.000310050898
 40       0.000180085375
 41       0.002449536421
 42       0.247588971127
 43       0.007155157227
 44      -0.041468153971
 45      -0.213290536661
 46       0.142524629781
 47       0.005326323014
 48       0.000393538701
 49      -0.919745833454
 50       0.024430640331
 51       0.001903966404
 52      -0.017572432797
 53      -0.000306028797
 54      -0.000182023225
 55       0.002517496239
 56       0.247593332515
 57       0.042918894541
 58      -0.248931457809
 59      -1.277474620505
 60       0.077448674763
 61       0.056226505129
 62      -0.000254909189
 63      -0.195527643603
 64      -0.541980674593
 65      -0.001231481039
 66      -0.105814115676
 67       0.000816804841
 68       0.001156972713
 69       0.136536622873
 70       0.068178063147
 71      -0.050109997310
 72       0.290671426634
 73       1.491043525700
 74      -0.065946882940
 75       0.025504056196
 76      -0.000138584203
 77       0.067024172894
 78      -0.368422981047
 79      -0.000673351596
 80       0.123653377820
 81       0.000906729129
 82      -0.001463171114
 83      -0.085803375598
 84       0.041940295467
 85      -0.051080270163
 86      -0.101530698859
 87       0.001539492626
 88      -0.217903640476
 89       0.000593013299
 90       0.043772750070
 91       0.086983257802
 92      -0.075963761091
 93      -0.308972675826
 94       0.001087930640
 95       0.007283058202
 96       0.014580566241
 97      -0.495110988097
 98       0.018959694631
 99      -0.001682264561
100       0.007346843463
101       0.014535493851
102       0.495102600366
103      -0.018834463844
104      -0.001687641980
105       0.043774297287
106       0.087072053060
107       0.075911811038
108       0.309053278792
109       0.001090955777
110      -0.051121107369
111      -0.101584445644
112      -0.001564525771
113       0.217962068075
114       0.000595559865
 Sym=     1a
 Ene= 1.69370228305348E+00
 Spin= Alpha
 Occup= 0.000000
  1      -0.000214803337
  2       0.001246596172
  3       0.006376615170
  4       0.000253815104
  5      -0.000058900887
  6       0.030020686063
  7      -0.000104080540
  8       0.001257462369
  9       0.144589014513
 10       0.000525595875
 11       0.220114702910
 12      -0.359560640036
 13      -0.000286665185
 14       0.000126075368
 15       0.000165602402
 16      -0.000960426212
 17      -0.004925275865
 18      -0.000329302654
 19      -0.000272058691
 20       0.064592314169
 21       0.000960628107
 22       0.002443381894
 23       0.311174435663
 24      -0.000406133198
 25       0.192967991811
 26       0.269209410898
 27       0.000629936654
 28       0.000314589179
 29       0.000048071195
 30      -0.000278046865
 31      -0.001463302403
 32      -0.000582961459
 33      -0.000038752774
 34      -0.094618992668
 35       0.003755192771
 36      -0.000145066399
 37      -0.455771890346
 38      -0.000114976733
 39      -0.091829084272
 40      -0.043318328629
 41       0.000009910323
 42       0.001011541913
 43       0.000049010598
 44      -0.000284417878
 45      -0.001441400315
 46       0.000581124130
 47       0.000038575448
 48      -0.094618345809
 49      -0.003757767578
 50       0.000151807157
 51      -0.455799929766
 52      -0.000121311089
 53       0.091824204420
 54       0.043325658344
 55       0.000002457744
 56       0.001011037911
 57       0.000164975844
 58      -0.000956315195
 59      -0.004930271982
 60       0.000332874210
 61       0.000274106754
 62       0.064592103132
 63      -0.000967090860
 64      -0.002455475415
 65       0.311148581316
 66      -0.000405908703
 67      -0.192971722257
 68      -0.269216514486
 69       0.000620563970
 70       0.000319547194
 71      -0.000214508248
 72       0.001244762856
 73       0.006377344053
 74      -0.000256592935
 75       0.000062675978
 76       0.030020820822
 77       0.000115386583
 78      -0.001269383077
 79       0.144621299413
 80       0.000536598561
 81      -0.220127586249
 82       0.359561044673
 83      -0.000281347209
 84       0.000135097873
 85      -0.000217253510
 86      -0.000434554897
 87      -0.000090751271
 88      -0.000764488295
 89      -0.128258069024
 90       0.000166349934
 91       0.000336286693
 92      -0.000405346210
 93      -0.001384889881
 94      -0.276026187171
 95       0.000052861717
 96       0.000097939741
 97      -0.002019572617
 98       0.000110720193
 99       0.404363665114
100       0.000046504660
101       0.000100312551
102       0.002023574472
103      -0.000126081404
104       0.404375416793
105       0.000170877989
106       0.000335044017
107       0.000408157895
108       0.001385990039
109      -0.276008989640
110      -0.000219813012
111      -0.000434156098
112       0.000086601811
113       0.000764906365
114      -0.128273835779
 Sym=     1a
 Ene= 1.69370925400895E+00
 Spin= Alpha
 Occup= 0.000000
  1       0.000041562537
  2      -0.000241065921
  3      -0.001252002299
  4       0.000130902723
  5      -0.000309014387
  6       0.091918068018
  7      -0.001142013384
  8       0.001810355550
  9       0.442840517045
 10      -0.000099676847
 11      -0.030714140880
 12       0.140803324146
 13      -0.000493088553
 14       0.000297367014
 15       0.000087121233
 16      -0.000505068886
 17      -0.002611331401
 18       0.000065096544
 19       0.000268266459
 20      -0.071959890250
 21      -0.001048979213
 22      -0.001353575919
 23      -0.346683833123
 24      -0.000211980518
 25       0.121080894573
 26       0.272280110130
 27      -0.000390082896
 28      -0.000229528655
 29      -0.000129055727
 30       0.000748174233
 31       0.003843698158
 32      -0.000065873325
 33       0.000115392031
 34      -0.019960310209
 35       0.000445357805
 36       0.000316744097
 37      -0.096190597602
 38       0.000313781061
 39       0.433656962294
 40      -0.012510957457
 41       0.000026239680
 42       0.000117995875
 43      -0.000128844579
 44       0.000746696822
 45       0.003853873550
 46       0.000071554234
 47      -0.000115600454
 48      -0.019961303332
 49      -0.000463249083
 50      -0.000316975076
 51      -0.096143830057
 52       0.000319995779
 53      -0.433654050724
 54       0.012489825952
 55       0.000019913323
 56       0.000123579741
 57       0.000087899675
 58      -0.000510374517
 59      -0.002591656323
 60      -0.000064862291
 61      -0.000262918396
 62      -0.071959265921
 63       0.001038977652
 64       0.001348267438
 65      -0.346637813358
 66      -0.000221863866
 67      -0.121085561092
 68      -0.272283750383
 69      -0.000392113777
 70      -0.000237186636
 71       0.000042531616
 72      -0.000247358817
 73      -0.001238263044
 74      -0.000130637341
 75       0.000305168321
 76       0.091918932203
 77       0.001148931298
 78      -0.001809997953
 79       0.442794652923
 80      -0.000110081874
 81       0.030721486003
 82      -0.140801853975
 83      -0.000490115436
 84       0.000303928486
 85       0.000046528714
 86       0.000083858771
 87       0.000639852051
 88      -0.000958221242
 89      -0.392811036725
 90       0.000091866247
 91       0.000176038420
 92       0.000619298827
 93       0.000691405048
 94       0.307539186385
 95      -0.000131088833
 96      -0.000262417236
 97      -0.000243807752
 98      -0.000273790025
 99       0.085328908415
100      -0.000132576491
101      -0.000261751592
102       0.000245013590
103       0.000270207653
104       0.085309345351
105       0.000086584263
106       0.000178083399
107      -0.000622901280
108      -0.000691604537
109       0.307509421864
110       0.000039105358
111       0.000085870136
112      -0.000652624594
113       0.000958944526
114      -0.392786880453
 Sym=     1a
 Ene= 1.69372170029268E+00
 Spin= Alpha
 Occup= 0.000000
  1       0.020661800361
  2      -0.119891919528
  3      -0.614166652544
  4       0.049530214745
  5      -0.124715210610
  6      -0.000213575902
  7      -0.467743358704
  8       0.721225931672
  9      -0.001015561899
 10      -0.051067955253
 11       0.000154492889
 12      -0.000468750808
 13      -0.196660341656
 14       0.121231308116
 15       0.033091090920
 16      -0.191979552622
 17      -0.984500560287
 18       0.032158210974
 19       0.113163838510
 20       0.000198422129
 21      -0.442794973225
 22      -0.592614550002
 23       0.000950218133
 24      -0.081721112179
 25      -0.000225792986
 26      -0.000562287314
 27      -0.170307509572
 28      -0.100962865712
 29      -0.053688542516
 30       0.311376964506
 31       1.598648179231
 32      -0.018675294455
 33       0.048060186599
 34       0.000015198090
 35       0.123826524969
 36       0.131716942925
 37       0.000071227808
 38       0.132297736563
 39      -0.001084175264
 40       0.000012395889
 41       0.009210257781
 42       0.032967919800
 43      -0.053689671502
 44       0.311378603868
 45       1.598978056868
 46       0.018677694777
 47      -0.048054845006
 48       0.000014236393
 49      -0.123968942537
 50      -0.131907365963
 51       0.000070188018
 52       0.132304477872
 53       0.001086948766
 54      -0.000017023304
 55       0.009221595207
 56       0.032941217274
 57       0.033093937889
 58      -0.192004352460
 59      -0.983998083148
 60      -0.032157084653
 61      -0.113148686684
 62       0.000197092540
 63       0.442601061545
 64       0.592646835718
 65       0.000954533992
 66      -0.081748697035
 67       0.000224747351
 68       0.000567133207
 69      -0.170270125045
 70      -0.100982605351
 71       0.020662934408
 72      -0.119892950691
 73      -0.614412437923
 74      -0.049520521542
 75       0.124687286593
 76      -0.000211272452
 77       0.467847664883
 78      -0.721040252060
 79      -0.001030660936
 80      -0.051083888928
 81      -0.000151654326
 82       0.000471051676
 83      -0.196635290844
 84       0.121230902097
 85       0.021068773133
 86       0.041834787664
 87       0.266045269221
 88      -0.380169812355
 89       0.000903318683
 90       0.033732688318
 91       0.067027985830
 92       0.260886185480
 93       0.305779481571
 94      -0.000843965502
 95      -0.054770959020
 96      -0.108931862228
 97      -0.067010069145
 98      -0.113402399713
 99      -0.000063991517
100      -0.054741164477
101      -0.108915975963
102       0.067017968328
103       0.113420205529
104      -0.000062090809
105       0.033722931883
106       0.067051424730
107      -0.260911536696
108      -0.305753404692
109      -0.000846297508
110       0.021037265237
111       0.041826570497
112      -0.266067886959
113       0.380142291894
114       0.000911786562
 Sym=     1a
 Ene= 1.76245845280915E+00
 Spin= Alpha
 Occup= 0.000000
  1       0.026170436880
  2      -0.220211523997
  3      -0.712016573694
  4      -0.069136443280
  5       0.017974339818
  6       0.000000494948
  7       1.381062156841
  8      -2.071673143940
  9      -0.000022593172
 10      -0.059007519242
 11      -0.000001311195
 12       0.000000013467
 13       0.094177985126
 14      -0.086617035664
 15      -0.054264326436
 16       0.456629926108
 17       1.476231324071
 18       0.111582055347
 19      -0.019893172894
 20      -0.000000541196
 21      -1.314714622746
 22      -1.507062252116
 23      -0.000003857044
 24       0.122379059572
 25       0.000000937431
 26      -0.000000277883
 27      -0.060221963407
 28      -0.095517028569
 29       0.080419296899
 30      -0.676752598803
 31      -2.187186874485
 32      -0.011522257178
 33      -0.157454683065
 34      -0.000001410294
 35       0.522219364002
 36       0.545612044379
 37       0.000002025315
 38      -0.181357846387
 39      -0.000001623615
 40       0.000002065979
 41       0.080530706566
 42       0.024890729687
 43      -0.080424448619
 44       0.676791257978
 45       2.187149793211
 46      -0.011545038479
 47      -0.157462817372
 48      -0.000001360508
 49       0.521859207305
 50       0.545630186558
 51       0.000000318902
 52       0.181393607364
 53       0.000002212748
 54      -0.000001686342
 55      -0.080543717032
 56      -0.024936803402
 57       0.054251402954
 58      -0.456543298845
 59      -1.476227071347
 60       0.111571503089
 61      -0.019888089614
 62      -0.000000437019
 63      -1.314493012972
 64      -1.506681927963
 65      -0.000005100840
 66      -0.122322251910
 67      -0.000000374290
 68       0.000000143518
 69       0.060191439803
 70       0.095488495254
 71      -0.026163040949
 72       0.220171088915
 73       0.711972878266
 74      -0.069140565885
 75       0.017974128946
 76       0.000000611482
 77       1.380833577821
 78      -2.071303460875
 79      -0.000021452485
 80       0.059010812675
 81       0.000001537248
 82       0.000000080213
 83      -0.094145050144
 84       0.086618482212
 85       0.087130792135
 86       0.118119455248
 87      -0.248687321636
 88       0.473351379298
 89       0.000004909888
 90      -0.180675164564
 91      -0.244911953057
 92       0.183224237152
 93       0.382885070882
 94       0.000001499001
 95       0.267843567068
 96       0.363052706398
 97      -0.111048932419
 98       0.054034777523
 99       0.000001863181
100      -0.267837837746
101      -0.363045909286
102      -0.111074448576
103       0.054031705631
104       0.000001783046
105       0.180680089807
106       0.244913162738
107       0.183213884784
108       0.382818226531
109       0.000001056345
110      -0.087117649504
111      -0.118098492843
112      -0.248704084566
113       0.473285026632
114       0.000003945124
 Sym=     1a
 Ene= 1.76247379215699E+00
 Spin= Alpha
 Occup= 0.000000
  1      -0.077759580267
  2       0.654370816677
  3       2.115067061400
  4       0.124189406597
  5       0.089752479204
  6      -0.000000131250
  7      -0.049679442891
  8      -0.988708091555
  9      -0.000007753477
 10       0.175380120098
 11       0.000001809700
 12      -0.000003432262
 13       0.075944745179
 14       0.044913025182
 15      -0.061540608017
 16       0.517887900693
 17       1.673434168810
 18       0.086351575056
 19      -0.090985176986
 20      -0.000000984831
 21       0.514884518079
 22       1.707190324604
 23       0.000011135934
 24       0.138821178447
 25       0.000000554733
 26      -0.000002774342
 27       0.106229545473
 28      -0.010987169547
 29      -0.016221301700
 30       0.136509427851
 31       0.441072521087
 32      -0.051183317780
 33       0.032161493012
 34       0.000000550185
 35       2.567026588145
 36      -0.129905032550
 37      -0.000012860117
 38       0.036594487288
 39       0.000000859289
 40      -0.000001129217
 41      -0.014245996958
 42       0.129737333004
 43       0.016214422403
 44      -0.136455955509
 45      -0.440974318731
 46      -0.051179988046
 47       0.032142746305
 48       0.000000480072
 49       2.567277857138
 50      -0.129927790309
 51      -0.000014186324
 52      -0.036540800124
 53      -0.000001038106
 54       0.000000924612
 55       0.014235110029
 56      -0.129742319499
 57       0.061534741327
 58      -0.517842134583
 59      -1.673520215948
 60       0.086338059640
 61      -0.090988269995
 62      -0.000000836768
 63       0.514786034291
 64       1.707041480939
 65       0.000009418825
 66      -0.138766562149
 67      -0.000000062705
 68       0.000002406505
 69      -0.106214811915
 70       0.010961648849
 71       0.077754392881
 72      -0.654329429953
 73      -2.115208470788
 74       0.124180345283
 75       0.089746239003
 76      -0.000000226405
 77      -0.049520744751
 78      -0.988951283076
 79      -0.000006635475
 80      -0.175327891515
 81      -0.000001768235
 82       0.000002626769
 83      -0.075936922234
 84      -0.044886912527
 85      -0.258954522889
 86      -0.350997175837
 87      -0.133509615467
 88       0.131001857389
 89       0.000002387299
 90      -0.204954539594
 91      -0.277794609995
 92      -0.223974537403
 93      -0.300933355046
 94      -0.000001491261
 95      -0.054010170161
 96      -0.073215095177
 97      -0.552735577606
 98      -0.006604110571
 99       0.000002105510
100       0.054034789508
101       0.073228377813
102      -0.552757490678
103      -0.006634578700
104       0.000003058020
105       0.204962874292
106       0.277812046881
107      -0.223971931874
108      -0.300921725015
109      -0.000001935191
110       0.258963852093
111       0.351015830515
112      -0.133526634157
113       0.131011865857
114       0.000002491667
 Sym=     1a
 Ene= 1.86832314589104E+00
 Spin= Alpha
 Occup= 0.000000
  1       0.000000047501
  2       0.000000270011
  3      -0.000027981383
  4      -0.000000543100
  5       0.000000094369
  6      -0.070827127286
  7      -0.000014454642
  8      -0.000003608245
  9      -0.052919382046
 10      -0.000000279183
 11       0.276984580545
 12       0.157223660180
 13       0.000003028632
 14      -0.000001195135
 15      -0.000000171841
 16       0.000000913124
 17       0.000020273008
 18      -0.000000505006
 19       0.000000601069
 20      -0.070823298144
 21       0.000010563874
 22      -0.000006526152
 23      -0.052901227505
 24      -0.000003958362
 25       0.274618224825
 26      -0.161305717822
 27      -0.000000262380
 28      -0.000002169713
 29       0.000000244122
 30      -0.000002903685
 31       0.000041288646
 32      -0.000000621735
 33       0.000001787584
 34      -0.070816107891
 35       0.000002969513
 36       0.000018288034
 37      -0.052859500878
 38       0.000003158242
 39       0.002343874776
 40       0.318474334298
 41       0.000001700528
 42       0.000001117142
 43       0.000000039224
 44       0.000000299125
 45      -0.000027056140
 46      -0.000000118710
 47       0.000000733017
 48      -0.070815895246
 49      -0.000003943026
 50       0.000015221676
 51      -0.052863832534
 52      -0.000004167586
 53      -0.002359413358
 54      -0.318470000964
 55      -0.000002710278
 56      -0.000001913093
 57      -0.000000373846
 58       0.000004096243
 59      -0.000048170229
 60       0.000001054093
 61      -0.000000357379
 62      -0.070825460823
 63       0.000016745554
 64      -0.000009908575
 65      -0.052902655354
 66       0.000005614963
 67      -0.274639378678
 68       0.161311820460
 69      -0.000000660218
 70       0.000003770238
 71       0.000000213957
 72      -0.000002668470
 73       0.000041642624
 74      -0.000001500723
 75       0.000000180338
 76      -0.070829243908
 77      -0.000014356680
 78      -0.000011730003
 79      -0.052915162009
 80      -0.000000337123
 81      -0.277006721356
 82      -0.157218787277
 83      -0.000001922262
 84       0.000001517216
 85      -0.000001410907
 86      -0.000001488745
 87       0.000002816885
 88      -0.000004198015
 89       0.372914910736
 90       0.000001851515
 91       0.000001289306
 92       0.000000964806
 93      -0.000002147146
 94       0.372894729730
 95       0.000000826882
 96       0.000002295524
 97       0.000000175780
 98      -0.000001105704
 99       0.372858756438
100      -0.000001603438
101      -0.000001700744
102       0.000003619260
103      -0.000003060218
104       0.372857821372
105      -0.000000570623
106      -0.000002690746
107       0.000003909226
108      -0.000003917948
109       0.372913073967
110       0.000000905626
111       0.000002295925
112      -0.000000210643
113      -0.000001897792
114       0.372927368045
 Sym=     1a
 Ene= 1.90928563899681E+00
 Spin= Alpha
 Occup= 0.000000
  1      -0.018109849048
  2       0.142049905482
  3      -0.556779594876
  4       0.003602925836
  5      -0.084022054931
  6      -0.000003076188
  7      -0.212584424785
  8       0.083955420229
  9      -0.000000472366
 10       0.055514943934
 11       0.000011107007
 12       0.000000250248
 13      -0.149678727565
 14       0.020394439602
 15      -0.017073081102
 16       0.133918033296
 17      -0.524675052150
 18       0.006998944840
 19       0.083265968178
 20       0.000002534525
 21      -0.209200260169
 22      -0.089468772391
 23       0.000001943505
 24       0.052346033601
 25      -0.000007962818
 26      -0.000000863049
 27      -0.147091621742
 28      -0.018087161045
 29       0.035183877807
 30      -0.275974336353
 31       1.081183950358
 32      -0.049489365929
 33       0.074823245482
 34      -0.000003227424
 35      -0.087016820420
 36       0.279267126052
 37      -0.000000978521
 38      -0.107801440948
 39       0.000000162744
 40       0.000016262691
 41      -0.111741539573
 42       0.227221519586
 43       0.035179441736
 44      -0.275929690662
 45       1.080829331689
 46      -0.051556987486
 47      -0.074059778581
 48       0.000004097186
 49      -0.080794916078
 50      -0.277816905334
 51       0.000001953894
 52      -0.107765454153
 53      -0.000002080984
 54       0.000019378027
 55      -0.118385330763
 56      -0.220432629575
 57      -0.017066478166
 58       0.133853690779
 59      -0.524498360166
 60       0.044153866809
 61       0.003838472628
 62      -0.000001738631
 63       0.293929340080
 64       0.233543998839
 65      -0.000001027405
 66       0.052230887521
 67      -0.000007682957
 68      -0.000005587121
 69       0.243933819033
 70       0.200036309645
 71      -0.018104100680
 72       0.141988789138
 73      -0.556017127309
 74       0.046217373277
 75      -0.003825874777
 76       0.000002193214
 77       0.294875569124
 78      -0.229408466502
 79      -0.000001083840
 80       0.055415790332
 81       0.000008742513
 82      -0.000001466216
 83       0.234722487900
 84      -0.209213935284
 85       0.019801436922
 86      -0.042185251246
 87      -0.182922890016
 88       0.092566441425
 89       0.000011655933
 90       0.018689444918
 91      -0.039738621305
 92      -0.177057881794
 93      -0.090388065913
 94      -0.000008020913
 95      -0.038456728057
 96       0.081955018879
 97       0.336791056346
 98       0.217788750555
 99       0.000017673086
100      -0.038473489513
101       0.081909756646
102       0.327147340262
103      -0.222690357860
104      -0.000021994657
105       0.018648631300
106      -0.039778210932
107      -0.159147659907
108      -0.482045672658
109       0.000004351931
110       0.019792031090
111      -0.042160328819
112      -0.144780315979
113       0.484776043871
114      -0.000006731281
 Sym=     1a
 Ene= 1.90930198643032E+00
 Spin= Alpha
 Occup= 0.000000
  1      -0.014179666904
  2       0.111212629900
  3      -0.435633634433
  4      -0.021222475425
  5      -0.023385216502
  6      -0.000001050495
  7      -0.347457082515
  8       0.385079906654
  9       0.000003712449
 10       0.043419336437
 11       0.000004083941
 12      -0.000005731343
 13       0.225407898790
 14      -0.188688674515
 15      -0.038141667231
 16       0.299165810748
 17      -1.172285500596
 18      -0.070278854200
 19       0.039765390202
 20       0.000004569432
 21      -0.456101918282
 22      -0.180189414823
 23       0.000004113383
 24       0.116829448174
 25      -0.000012863459
 26      -0.000000754333
 27       0.158696693674
 28       0.231429621586
 29       0.052326993488
 30      -0.410436668360
 31       1.607898399886
 32       0.021986786060
 33       0.110579416210
 34      -0.000003567196
 35       0.176501443728
 36       0.412837215530
 37      -0.000001460734
 38      -0.160310312971
 39       0.000000287922
 40       0.000020858378
 41      -0.173894777364
 42      -0.179602426616
 43       0.052330607905
 44      -0.410474469568
 45       1.608318829724
 46       0.042679166427
 47      -0.111070278718
 48       0.000003919425
 49      -0.069280938898
 50      -0.413862172648
 51       0.000001211786
 52      -0.160342062646
 53       0.000002792249
 54       0.000021473577
 55      -0.169646107280
 56       0.106818441586
 57      -0.038145156511
 58       0.299199672069
 59      -1.172123749442
 60       0.037550626728
 61      -0.095496359297
 62      -0.000004003697
 63       0.401761599891
 64       0.087973322614
 65      -0.000003953769
 66       0.116889272471
 67      -0.000010801953
 68       0.000001326852
 69      -0.091487099109
 70       0.091868271747
 71      -0.014182555043
 72       0.111245827993
 73      -0.436132605420
 74      -0.010651214308
 75       0.079593627314
 76       0.000001818007
 77       0.294857402238
 78      -0.291933778539
 79      -0.000002712855
 80       0.043462484089
 81       0.000008116144
 82      -0.000003274029
 83      -0.020544475765
 84      -0.041782013064
 85       0.015518707979
 86      -0.032987465588
 87       0.165328236733
 88      -0.471213998439
 89      -0.000000440880
 90       0.041692334594
 91      -0.088848161673
 92       0.005475248495
 93       0.480965130688
 94      -0.000013102349
 95      -0.057226730836
 96       0.121815814690
 97      -0.283834061692
 98       0.329757115445
 99       0.000023095655
100      -0.057210338748
101       0.121863237799
102      -0.140944401884
103      -0.326625885166
104      -0.000023294511
105       0.041719202516
106      -0.088815971391
107       0.209633589721
108      -0.114701534341
109       0.000012514537
110       0.015511237463
111      -0.033028437917
112       0.044335914974
113       0.101811930665
114      -0.000005424023
 Sym=     1a
 Ene= 1.90932143212189E+00
 Spin= Alpha
 Occup= 0.000000
  1      -0.059777448478
  2       0.468881434875
  3      -1.837100793596
  4      -0.122408211974
  5      -0.040717990613
  6      -0.000006207257
  7      -0.325575648773
  8      -0.385304640697
  9      -0.000006740147
 10       0.183165755384
 11       0.000020564143
 12       0.000014545941
 13      -0.123266136150
 14      -0.154159873158
 15       0.048539000839
 16      -0.380732032481
 17       1.491780579269
 18       0.101495538722
 19      -0.030095840823
 20      -0.000006200099
 21       0.144862008664
 22      -0.512305239675
 23      -0.000008991845
 24      -0.148744962723
 25       0.000011297883
 26      -0.000014808010
 27       0.207672114626
 28      -0.065975809773
 29       0.011243267910
 30      -0.088194614404
 31       0.345377645284
 32       0.058284080199
 33       0.023361300215
 34      -0.000001417187
 35      -0.528396195007
 36       0.093001419915
 37       0.000002205351
 38      -0.034441234561
 39      -0.000008255194
 40       0.000005876377
 41      -0.034658865597
 42       0.142716673657
 43       0.011240093652
 44      -0.088164657688
 45       0.345461126995
 46      -0.043014932857
 47      -0.023484548713
 48       0.000001112536
 49       0.553778238555
 50      -0.093050677040
 51      -0.000002530295
 52      -0.034456365106
 53      -0.000007866730
 54       0.000002991636
 55      -0.033662084257
 56       0.210363445140
 57       0.048540250430
 58      -0.380740338128
 59       1.491346036479
 60      -0.109215700708
 61       0.016934965357
 62       0.000005147564
 63      -0.157676326925
 64       0.490258365148
 65       0.000008151276
 66      -0.148725712670
 67       0.000009611874
 68      -0.000012756390
 69       0.148586719972
 70      -0.098921023310
 71      -0.059778999074
 72       0.468893264062
 73      -1.836838412281
 74       0.114867646891
 75       0.054000674826
 76       0.000005601810
 77       0.313149456041
 78       0.406981394649
 79       0.000006226441
 80       0.183170262130
 81       0.000019557591
 82       0.000013039925
 83      -0.181357457323
 84      -0.119450805414
 85       0.065322909679
 86      -0.139236509850
 87      -0.357586711397
 88      -0.128309641903
 89       0.000029201240
 90      -0.053040783936
 91       0.113043413300
 92       0.398410053736
 93       0.078204416995
 94       0.000021873319
 95      -0.012270605342
 96       0.026210893696
 97       0.284294571128
 98       0.068275338376
 99       0.000005601477
100      -0.012299033196
101       0.026162928669
102      -0.384625648746
103      -0.067547898412
104      -0.000002590984
105      -0.053033774955
106       0.113041709376
107      -0.347582511020
108       0.008322991210
109      -0.000018720032
110       0.065326411436
111      -0.139223720176
112       0.407076900468
113       0.041101274733
114      -0.000027489047
 Sym=     1a
 Ene= 1.91506602442060E+00
 Spin= Alpha
 Occup= 0.000000
  1       0.000000929467
  2      -0.000006984157
  3       0.000022444982
  4      -0.000000230303
  5       0.000003603357
  6      -0.033191439393
  7       0.000016193276
  8      -0.000021474739
  9      -0.027287817986
 10      -0.000005319389
 11       0.183918370096
 12      -0.073261774491
 13      -0.000004887922
 14       0.000004783885
 15       0.000002372585
 16      -0.000018806507
 17       0.000081312848
 18       0.000004048294
 19      -0.000005206455
 20       0.082109368720
 21       0.000031148858
 22       0.000007413260
 23       0.067485769298
 24      -0.000004155186
 25      -0.322965023750
 26       0.054887094479
 27      -0.000002275637
 28      -0.000006570407
 29      -0.000003349524
 30       0.000025584271
 31      -0.000088824662
 32       0.000000674522
 33      -0.000005340098
 34      -0.115301709605
 35      -0.000004453979
 36      -0.000021095704
 37      -0.094746741042
 38       0.000015265759
 39       0.041463927416
 40       0.429799272970
 41       0.000014586493
 42       0.000002195956
 43      -0.000003420909
 44       0.000026940451
 45      -0.000111185834
 46       0.000000713135
 47       0.000006615976
 48       0.115302303265
 49       0.000009992152
 50       0.000029942911
 51       0.094749185031
 52       0.000016089079
 53       0.041464010272
 54       0.429802266800
 55       0.000014491414
 56       0.000005459084
 57       0.000002342499
 58      -0.000017782434
 59       0.000058139905
 60      -0.000002944357
 61       0.000004235053
 62      -0.082112740245
 63      -0.000022647847
 64      -0.000009726074
 65      -0.067484889107
 66      -0.000003677927
 67      -0.322976648980
 68       0.054880595159
 69      -0.000005344386
 70      -0.000008815206
 71       0.000001126384
 72      -0.000008953261
 73       0.000038122738
 74      -0.000000931577
 75      -0.000003419415
 76       0.033196277477
 77      -0.000024333639
 78       0.000017785511
 79       0.027286189529
 80      -0.000006084806
 81       0.183937916754
 82      -0.073265969009
 83      -0.000007354801
 84       0.000007390959
 85      -0.000001361302
 86       0.000001469588
 87      -0.000001781433
 88       0.000014564647
 89       0.141717730411
 90      -0.000002150188
 91       0.000005943294
 92       0.000005786398
 93      -0.000014654376
 94      -0.350600261436
 95       0.000003366952
 96      -0.000007379193
 97       0.000003254697
 98      -0.000024406316
 99       0.492317314006
100       0.000003063576
101      -0.000008502201
102      -0.000009316894
103       0.000025502097
104      -0.492321274142
105      -0.000002330342
106       0.000005119108
107      -0.000002858171
108       0.000018179073
109       0.350605771392
110      -0.000000586588
111       0.000003338640
112       0.000002707893
113      -0.000019858179
114      -0.141730146948
 Sym=     1a
 Ene= 1.91506826680059E+00
 Spin= Alpha
 Occup= 0.000000
  1      -0.000003628186
  2       0.000028460951
  3      -0.000117057456
  4      -0.000006371411
  5      -0.000004508039
  6       0.113973416788
  7      -0.000022527046
  8      -0.000026083312
  9       0.093668055815
 10       0.000011095489
 11      -0.347567065044
 12      -0.248970022307
 13      -0.000012758973
 14      -0.000006833394
 15       0.000002661836
 16      -0.000021079349
 17       0.000090856337
 18       0.000006661649
 19      -0.000001905143
 20       0.085728557558
 21       0.000010781479
 22      -0.000032821454
 23       0.070447119022
 24      -0.000003304073
 25      -0.219419372943
 26       0.257905094186
 27       0.000010620031
 28      -0.000001307888
 29       0.000001040935
 30      -0.000008300867
 31       0.000036439176
 32       0.000002859141
 33       0.000002105953
 34       0.028244089888
 35      -0.000029223236
 36       0.000012294579
 37       0.023201437408
 38      -0.000005911414
 39       0.155486964415
 40      -0.106524152896
 41      -0.000003415035
 42       0.000009902110
 43       0.000000847219
 44      -0.000006327166
 45       0.000019032142
 46      -0.000003044639
 47      -0.000001246978
 48      -0.028240473482
 49       0.000030105268
 50      -0.000002369229
 51      -0.023203207627
 52      -0.000005234169
 53       0.155480295687
 54      -0.106506629677
 55      -0.000002515787
 56       0.000007677038
 57       0.000002635557
 58      -0.000019998388
 59       0.000065331780
 60      -0.000005452714
 61       0.000001263599
 62      -0.085727734429
 63      -0.000003434288
 64       0.000026187149
 65      -0.070445031569
 66      -0.000002760102
 67      -0.219411840943
 68       0.257906800606
 69       0.000012766402
 70      -0.000000719155
 71      -0.000003560530
 72       0.000027266486
 73      -0.000094634574
 74       0.000005796434
 75       0.000002952246
 76      -0.113972304274
 77       0.000016912905
 78       0.000016827978
 79      -0.093663666806
 80       0.000010798494
 81      -0.347563442698
 82      -0.248964357043
 83      -0.000011312958
 84      -0.000007820992
 85       0.000003175783
 86      -0.000009010288
 87      -0.000025914145
 88      -0.000001543915
 89      -0.486667470410
 90      -0.000002371909
 91       0.000006701209
 92       0.000019122583
 93       0.000004832400
 94      -0.366066751231
 95      -0.000000448492
 96       0.000003217840
 97       0.000019705124
 98       0.000007503714
 99      -0.120600787454
100      -0.000001339610
101       0.000001207655
102      -0.000016857325
103      -0.000005839467
104       0.120587977632
105      -0.000002653037
106       0.000005717294
107      -0.000019838377
108      -0.000007317200
109       0.366058691584
110       0.000003631492
111      -0.000007807715
112       0.000023184318
113       0.000004592691
114       0.486658166789
 Sym=     1a
 Ene= 2.05039644482868E+00
 Spin= Alpha
 Occup= 0.000000
  1       0.015615935533
  2      -0.177441871093
  3       0.072611504415
  4       0.318787187213
  5       0.180868024859
  6      -0.000000368881
  7      -0.070539046979
  8      -0.039343141930
  9       0.000000023078
 10      -0.214644444212
 11      -0.000001188715
 12       0.000002270923
 13       0.010483059592
 14       0.017582080443
 15      -0.015616548150
 16       0.177469552392
 17      -0.072811320023
 18      -0.316063457957
 19       0.185558443389
 20       0.000003077179
 21       0.069863558427
 22      -0.040435966164
 23      -0.000000483210
 24       0.214699344378
 25       0.000001766501
 26      -0.000002669289
 27      -0.009961735608
 28       0.017852430368
 29      -0.015614253335
 30       0.177526388440
 31      -0.073432562909
 32      -0.002781788434
 33      -0.366494944606
 34      -0.000003383853
 35      -0.000380729238
 36       0.080570531577
 37       0.000000297959
 38       0.214863948756
 39       0.000002247941
 40      -0.000001370019
 41       0.020383105489
 42      -0.000339904034
 43       0.015614842931
 44      -0.177526615055
 45       0.073420392360
 46      -0.002711590123
 47      -0.366484783576
 48      -0.000002834755
 49       0.001387381992
 50       0.080573242840
 51       0.000000604039
 52      -0.214857962300
 53      -0.000001131531
 54       0.000002678176
 55      -0.020383635504
 56       0.000255384575
 57       0.015613915631
 58      -0.177460115161
 59       0.072837311670
 60      -0.316118243541
 61       0.185529178586
 62       0.000001927809
 63       0.068930730186
 64      -0.041931589318
 65      -0.000001095775
 66      -0.214715950753
 67      -0.000003689769
 68       0.000003805466
 69       0.010009252090
 70      -0.017825853350
 71      -0.015614348057
 72       0.177437173120
 73      -0.072627533461
 74       0.318829818935
 75       0.180840778393
 76      -0.000000984927
 77      -0.069644150806
 78      -0.040857035030
 79      -0.000000280290
 80       0.214656140202
 81       0.000000949322
 82      -0.000003673269
 83      -0.010518503208
 84      -0.017561427800
 85       0.022151231000
 86       0.157083368348
 87       0.371492279660
 88       0.210795698742
 89      -0.000000066228
 90      -0.022147238433
 91      -0.157075666531
 92      -0.368312945845
 93       0.216286276975
 94       0.000003058677
 95      -0.022135094258
 96      -0.157074957886
 97      -0.003071396746
 98      -0.427117842775
 99      -0.000001886218
100       0.022130850632
101       0.157066419933
102      -0.003207071796
103      -0.427106857695
104      -0.000003060092
105       0.022159486775
106       0.157103846432
107      -0.368252308604
108       0.216443003259
109       0.000005073177
110      -0.022160235638
111      -0.157102699809
112       0.371421674077
113       0.210962053348
114       0.000000758265
 Sym=     1a
 Ene= 2.06073651509270E+00
 Spin= Alpha
 Occup= 0.000000
  1      -0.000007243470
  2       0.000099308460
  3       0.000326120108
  4      -0.082260090507
  5       0.144819244763
  6       0.000001590208
  7      -2.846745155601
  8       5.016484079510
  9       0.000051044315
 10       0.000088028522
 11       0.000001377558
 12       0.000000316182
 13      -0.169061451772
 14       0.101002082592
 15       0.000011227531
 16      -0.000135011944
 17      -0.000745258447
 18       0.084397191024
 19       0.143581675870
 20       0.000000632901
 21       2.920575289861
 22       4.973545323943
 23       0.000023291987
 24      -0.000084371136
 25       0.000000206984
 26      -0.000001619200
 27       0.171994105782
 28       0.095927049611
 29       0.000004310499
 30      -0.000010520989
 31      -0.000213292832
 32      -0.166626982648
 33       0.001291016252
 34       0.000000727336
 35      -5.767680003571
 36       0.042686041350
 37       0.000027745058
 38       0.000039023000
 39      -0.000001333841
 40       0.000001154910
 41      -0.002976006234
 42      -0.196953113879
 43      -0.000008123246
 44       0.000049809197
 45       0.000763944893
 46       0.166598264936
 47      -0.001163422793
 48      -0.000000899016
 49       5.767475195112
 50      -0.042941482886
 51      -0.000029178880
 52      -0.000052529281
 53      -0.000001698996
 54       0.000000692379
 55      -0.002870707087
 56      -0.196940687254
 57       0.000008134110
 58      -0.000073759313
 59      -0.000976927489
 60      -0.084365344526
 61      -0.143740419755
 62      -0.000000691956
 63      -2.920998317229
 64      -4.974299321571
 65      -0.000021866395
 66       0.000034740051
 67      -0.000000254694
 68      -0.000001766755
 69       0.172054968313
 70       0.095938314417
 71      -0.000007420500
 72       0.000042839580
 73       0.000936855230
 74       0.082216495548
 75      -0.144957706873
 76      -0.000001360820
 77       2.846974205568
 78      -5.017081780152
 79      -0.000051045373
 80      -0.000088052288
 81       0.000002078451
 82       0.000000685052
 83      -0.169126812967
 84       0.100973380908
 85      -0.000005154031
 86      -0.000074206198
 87       0.257214749748
 88      -0.453456313151
 89      -0.000004917220
 90      -0.000028690317
 91       0.000078283638
 92      -0.263904667623
 93      -0.449567314381
 94      -0.000002011762
 95      -0.000026327974
 96      -0.000001754186
 97       0.521395881285
 98      -0.003821902873
 99      -0.000002291743
100      -0.000008697613
101      -0.000051029123
102      -0.521353382880
103       0.003949760253
104       0.000002908959
105      -0.000030117162
106       0.000033595284
107       0.264090672718
108       0.449631683038
109       0.000002008305
110       0.000008785146
111      -0.000028748809
112      -0.257389820664
113       0.453491255827
114       0.000004304202
 Sym=     1a
 Ene= 2.06845531020818E+00
 Spin= Alpha
 Occup= 0.000000
  1       0.003839724357
  2       0.054201240733
  3      -0.803085786265
  4       0.205023190761
  5      -0.276717000771
  6      -0.000003070889
  7       0.526480740652
  8      -1.336909438714
  9      -0.000012198876
 10       0.218236599812
 11       0.000001806101
 12      -0.000003652050
 13       0.143601489942
 14       0.037729579597
 15      -0.005235304777
 16      -0.073786878557
 17       1.094196712549
 18      -0.205314835404
 19      -0.237314846761
 20      -0.000000789572
 21      -0.413054740402
 22      -1.246727596344
 23      -0.000007271454
 24      -0.297256293398
 25      -0.000000879112
 26       0.000004865284
 27      -0.152317223551
 28       0.080413739122
 29       0.009080422825
 30       0.127947960642
 31      -1.897951005738
 32       0.033996660941
 33       0.098606893988
 34       0.000000604310
 35       0.135758408131
 36      -0.478580204268
 37      -0.000004711628
 38       0.515382405767
 39       0.000005729421
 40      -0.000004935919
 41      -0.250305195875
 42       0.013880951365
 43      -0.009080477887
 44      -0.127942164703
 45       1.897879747170
 46       0.033937637460
 47       0.098616491855
 48       0.000000547778
 49       0.133773949151
 50      -0.478537741152
 51      -0.000004547788
 52      -0.515372503737
 53      -0.000005591756
 54       0.000005359275
 55       0.250304535033
 56      -0.013800903686
 57       0.005235421754
 58       0.073794669796
 59      -1.094279881725
 60      -0.205277126299
 61      -0.237274494765
 62      -0.000000723829
 63      -0.412050360533
 64      -1.245100358863
 65      -0.000006668027
 66       0.297267263908
 67       0.000001125041
 68      -0.000004194993
 69       0.152270150790
 70      -0.080439455870
 71      -0.003840612497
 72      -0.054205125287
 73       0.803224436297
 74       0.204977678127
 75      -0.276678897531
 76      -0.000003041161
 77       0.525451599035
 78      -1.335253004479
 79      -0.000012336760
 80      -0.218248889450
 81      -0.000001342755
 82       0.000004369714
 83      -0.143544769726
 84      -0.037760828182
 85       0.023051196126
 86       0.006108222635
 87      -0.111788948638
 88       0.270008259629
 89       0.000002751090
 90      -0.031397851805
 91      -0.008334235657
 92       0.090213582094
 93       0.250601386368
 94       0.000001547636
 95       0.054443088777
 96       0.014512581650
 97      -0.027641382089
 98       0.085636753559
 99       0.000001322880
100      -0.054443629148
101      -0.014518173100
102      -0.027464523812
103       0.085644036979
104       0.000000617084
105       0.031393167584
106       0.008322083269
107       0.090135786374
108       0.250445151626
109       0.000001003235
110      -0.023034093224
111      -0.006084119216
112      -0.111724951213
113       0.269841989869
114       0.000002126260
 Sym=     1a
 Ene= 2.06847065210856E+00
 Spin= Alpha
 Occup= 0.000000
  1       0.008260202213
  2       0.116539213255
  3      -1.727254458895
  4      -0.000270499416
  5       0.182621260199
  6       0.000001350282
  7      -0.703995666835
  8       0.360158919580
  9       0.000006044150
 10       0.469188509844
 11       0.000005066649
 12      -0.000007345027
 13       0.075477516934
 14       0.220483589482
 15       0.007457819492
 16       0.105196342523
 17      -1.559347117345
 18      -0.039622233131
 19      -0.227855659869
 20      -0.000001539704
 21      -0.794438963601
 22      -0.578052777193
 23      -0.000000421641
 24       0.423535567615
 25       0.000001322920
 26      -0.000004583759
 27       0.042809607201
 28      -0.211805911030
 29       0.000805120586
 30       0.011318773843
 31      -0.168110336611
 32      -0.375393627679
 33       0.011557178457
 34       0.000001847261
 35      -1.561406676988
 36      -0.030752185756
 37       0.000007566122
 38       0.045608640563
 39      -0.000000510908
 40       0.000000421875
 41      -0.023863295427
 42      -0.113834994369
 43      -0.000803633521
 44      -0.011327223081
 45       0.167947026268
 46      -0.375412140237
 47       0.011571808637
 48       0.000002000898
 49      -1.562020533761
 50      -0.030669774016
 51       0.000007139708
 52      -0.045604761836
 53       0.000000009389
 54       0.000000259953
 55       0.023866027927
 56       0.113857767123
 57      -0.007457725032
 58      -0.105203538079
 59       1.559446470921
 60      -0.039617029791
 61      -0.227839562477
 62      -0.000001420796
 63      -0.794174770160
 64      -0.577553778883
 65      -0.000001098264
 66      -0.423546992909
 67      -0.000001811684
 68       0.000004488572
 69      -0.042822572984
 70       0.211802898950
 71      -0.008260088009
 72      -0.116546875287
 73       1.727357859598
 74      -0.000288628799
 75       0.182634139568
 76       0.000001325627
 77      -0.704348114500
 78       0.360720555558
 79       0.000006998098
 80      -0.469202580171
 81      -0.000005945634
 82       0.000007604557
 83      -0.075455936502
 84      -0.220500415727
 85       0.049556122942
 86       0.013170679671
 87       0.134079075592
 88      -0.078919910582
 89      -0.000001349843
 90       0.044742905891
 91       0.011917981674
 92       0.153543842800
 93       0.122870624498
 94      -0.000000215888
 95       0.004806071312
 96       0.001282577992
 97       0.318454412183
 98       0.005214989727
 99      -0.000001336453
100      -0.004829290573
101      -0.001304120769
102       0.318506028726
103       0.005240443481
104      -0.000001711533
105      -0.044745108439
106      -0.011916149190
107       0.153518435269
108       0.122833727479
109       0.000000840040
110      -0.049559449921
111      -0.013167797399
112       0.134107486840
113      -0.078983485493
114      -0.000001571731
 Sym=     1a
 Ene= 2.22204592763924E+00
 Spin= Alpha
 Occup= 0.000000
  1      -0.011413892247
  2       0.033859093991
  3       0.202044370690
  4       0.101730572580
  5       0.117705947771
  6      -0.000001659434
  7       0.088891110644
  8       0.254075664423
  9      -0.000000196024
 10      -0.055998610161
 11      -0.000026496040
 12       0.000041446945
 13      -0.456685762519
 14       0.243971258501
 15       0.037448591552
 16      -0.111055286515
 17      -0.663497480896
 18      -0.420723414246
 19       0.233140131738
 20      -0.000002794118
 21      -0.594133582174
 22       0.301979272627
 23       0.000000437819
 24       0.183785781184
 25      -0.000006887631
 26       0.000016287691
 27      -0.064426542928
 28      -0.128947894178
 29      -0.026030362645
 30       0.077151690220
 31       0.461405416788
 32       0.042590477675
 33       0.333982630716
 34       0.000007156232
 35       0.139171491829
 36       0.461556280315
 37       0.000006363375
 38      -0.127785966557
 39      -0.000036121861
 40       0.000011079833
 41       0.062396651951
 42       0.397181967375
 43      -0.026033705409
 44       0.077168181585
 45       0.461482502438
 46      -0.042583718027
 47      -0.333993930253
 48      -0.000007002479
 49      -0.139167020362
 50      -0.461528551120
 51      -0.000006313306
 52      -0.127809815103
 53      -0.000035082749
 54       0.000012264437
 55       0.062378819312
 56       0.397180082705
 57       0.037451945605
 58      -0.111095240867
 59      -0.663455804753
 60       0.420697720261
 61      -0.233114767042
 62       0.000003399058
 63       0.594112408429
 64      -0.301992809496
 65       0.000000456944
 66       0.183760717800
 67      -0.000009458740
 68       0.000018590115
 69      -0.064437344826
 70      -0.128932649713
 71      -0.011412431544
 72       0.033862296469
 73       0.201999208028
 74      -0.101716541546
 75      -0.117691891607
 76       0.000001733301
 77      -0.088880881710
 78      -0.254094367064
 79       0.000000013435
 80      -0.055969726447
 81      -0.000023477303
 82       0.000044063055
 83      -0.456692002800
 84       0.243973826754
 85       0.066029006413
 86       0.104698278063
 87      -0.025615694197
 88       0.275960745091
 89      -0.000000515754
 90      -0.216618297949
 91      -0.343471791097
 92      -0.351719187065
 93       0.139082200878
 94      -0.000001210299
 95       0.150614874577
 96       0.238804625944
 97       0.196468850884
 98       0.258367705855
 99       0.000004490770
100       0.150598305981
101       0.238783710083
102      -0.196448018283
103      -0.258374715212
104      -0.000004921473
105      -0.216603332724
106      -0.343459892896
107       0.351681853615
108      -0.139058715841
109       0.000003959153
110       0.066029436619
111       0.104702803217
112       0.025635442239
113      -0.275957065860
114      -0.000001643441
 Sym=     1a
 Ene= 2.22204681520453E+00
 Spin= Alpha
 Occup= 0.000000
  1       0.036653650536
  2      -0.108728366249
  3      -0.649231919785
  4      -0.417304644502
  5      -0.218129612811
  6       0.000006776651
  7      -0.593380020803
  8      -0.273450751560
  9       0.000005460541
 10       0.179845882626
 11       0.000008610806
 12       0.000018273047
 13      -0.097497567175
 14       0.150830638483
 15      -0.008436016200
 16       0.025024518869
 17       0.149145346214
 18       0.066482466989
 19      -0.100836001297
 20       0.000000310536
 21       0.037681049060
 22      -0.231743920408
 23      -0.000000953037
 24      -0.041368977857
 25       0.000026514561
 26       0.000044552075
 27      -0.470396725183
 28      -0.241425617781
 29      -0.028209769655
 30       0.083618866856
 31       0.500062508663
 32      -0.034311689619
 33       0.362520604608
 34       0.000007999026
 35      -0.121665150559
 36       0.502150273015
 37       0.000008322521
 38      -0.138486250329
 39       0.000029277561
 40       0.000017658808
 41       0.055727843751
 42      -0.368224398894
 43      -0.028206825568
 44       0.083595086631
 45       0.500030161683
 46       0.034315830983
 47      -0.362518112263
 48      -0.000007787892
 49       0.121652594036
 50      -0.502183171142
 51      -0.000007842349
 52      -0.138484755351
 53       0.000028814393
 54       0.000013414649
 55       0.055758917041
 56      -0.368220296450
 57      -0.008436950785
 58       0.025039581071
 59       0.149133377392
 60      -0.066477925773
 61       0.100814083264
 62      -0.000000458079
 63      -0.037670064585
 64       0.231735916957
 65       0.000000672965
 66      -0.041355367904
 67       0.000028670805
 68       0.000045130888
 69      -0.470397644163
 70      -0.241437948626
 71       0.036655235376
 72      -0.108753048747
 73      -0.649182804561
 74       0.417300552889
 75       0.218113411505
 76      -0.000007151628
 77       0.593352401439
 78       0.273462783179
 79      -0.000006107036
 80       0.179824230653
 81       0.000011227617
 82       0.000019203046
 83      -0.097511475065
 84       0.150814093693
 85      -0.211994664673
 86      -0.336158324749
 87      -0.356915573591
 88      -0.112084370520
 89       0.000005001784
 90       0.048843314498
 91       0.077443511787
 92      -0.058079328746
 93      -0.265285187426
 94      -0.000001132460
 95       0.163195989149
 96       0.258756467576
 97      -0.177417021182
 98       0.282884423418
 99       0.000008226895
100       0.163212334786
101       0.258777182665
102       0.177439546868
103      -0.282886162641
104      -0.000005444961
105       0.048834363557
106       0.077436726499
107       0.058099112719
108       0.265283760510
109       0.000000060892
110      -0.211987874477
111      -0.336151056329
112       0.356894931933
113       0.112088791778
114      -0.000006982664
 Sym=     1a
 Ene= 2.22557212204331E+00
 Spin= Alpha
 Occup= 0.000000
  1       0.000002623379
  2      -0.000008061269
  3      -0.000044725375
  4      -0.000028637218
  5      -0.000017542540
  6      -0.082189790669
  7      -0.000037524284
  8      -0.000028198707
  9      -0.059354133322
 10       0.000016581785
 11      -0.315851899064
 12       0.111808730891
 13       0.000016143930
 14      -0.000000618210
 15      -0.000002338571
 16       0.000007213910
 17       0.000042243816
 18       0.000023676206
 19      -0.000016335019
 20      -0.070250125874
 21       0.000031247242
 22      -0.000027134324
 23      -0.050736201239
 24      -0.000011547867
 25      -0.368661730034
 26      -0.257280085856
 27      -0.000027252695
 28      -0.000005683177
 29      -0.000000293560
 30       0.000000704267
 31       0.000007089970
 32      -0.000003790782
 33       0.000004157591
 34      -0.011927574776
 35      -0.000011022887
 36       0.000007719005
 37      -0.008608555897
 38       0.000003703505
 39      -0.661863984434
 40      -0.026908061060
 41      -0.000003304448
 42      -0.000035070306
 43      -0.000000374396
 44       0.000001339616
 45       0.000003478037
 46       0.000004273510
 47      -0.000004726659
 48       0.011933499623
 49       0.000014404443
 50      -0.000004067822
 51       0.008623929557
 52       0.000003529555
 53      -0.661862409256
 54      -0.027015168659
 55      -0.000003299780
 56      -0.000035168839
 57      -0.000002235722
 58       0.000006831910
 59       0.000030005646
 60      -0.000023779485
 61       0.000016394070
 62       0.070251297534
 63      -0.000028975675
 64       0.000023143166
 65       0.050730309797
 66      -0.000011127687
 67      -0.368594634816
 68      -0.257279942281
 69      -0.000026906598
 70      -0.000006061125
 71       0.000002626408
 72      -0.000008076471
 73      -0.000038130398
 74       0.000029074046
 75       0.000017141578
 76       0.082191621246
 77       0.000036927225
 78       0.000022365763
 79       0.059350830641
 80       0.000017247983
 81      -0.315762753113
 82       0.111823723600
 83       0.000015370136
 84      -0.000000082485
 85      -0.000015345670
 86      -0.000023987178
 87      -0.000018964630
 88      -0.000019284735
 89      -0.064788273939
 90       0.000013231396
 91       0.000020826778
 92       0.000013187458
 93      -0.000021186544
 94      -0.055357164654
 95       0.000002193038
 96       0.000003309700
 97      -0.000020910966
 98       0.000003400688
 99      -0.009389962809
100       0.000001724032
101       0.000002817678
102       0.000019704499
103      -0.000003779600
104       0.009430136363
105       0.000013309558
106       0.000020751348
107      -0.000013046214
108       0.000022283894
109       0.055323001115
110      -0.000015072521
111      -0.000023668905
112       0.000019022882
113       0.000019680659
114       0.064732847547
 Sym=     1a
 Ene= 2.22564095862549E+00
 Spin= Alpha
 Occup= 0.000000
  1      -0.000001118015
  2       0.000003542032
  3       0.000020035092
  4       0.000013987772
  5       0.000003346796
  6       0.033680293365
  7       0.000021317558
  8       0.000000144958
  9       0.024318485719
 10       0.000003928781
 11      -0.226732024302
 12       0.581761887755
 13       0.000034525192
 14      -0.000017036228
 15      -0.000001843462
 16       0.000005808270
 17       0.000028817656
 18       0.000021649245
 19      -0.000008311502
 20      -0.054349489802
 21       0.000032995562
 22      -0.000003669262
 23      -0.039241449673
 24      -0.000003074604
 25       0.142296004809
 26       0.528930299237
 27       0.000030808665
 28       0.000020671733
 29       0.000002857177
 30      -0.000008732468
 31      -0.000044737486
 32      -0.000000383356
 33      -0.000037583735
 34       0.088006922062
 35      -0.000001288567
 36      -0.000049908707
 37       0.063552104983
 38       0.000017623002
 39      -0.087979076550
 40       0.235675379266
 41      -0.000004890238
 42      -0.000003870978
 43       0.000002908465
 44      -0.000008978518
 45      -0.000046185198
 46       0.000000647590
 47       0.000037475851
 48      -0.088006919965
 49       0.000005059195
 50       0.000049434448
 51      -0.063553552105
 52       0.000018032038
 53      -0.087983157234
 54       0.235718708573
 55      -0.000005225427
 56      -0.000004728588
 57      -0.000001801932
 58       0.000005400700
 59       0.000028654231
 60      -0.000021256367
 61       0.000008839707
 62       0.054349708481
 63      -0.000031304470
 64       0.000008391190
 65       0.039237499751
 66      -0.000003536640
 67       0.142280562296
 68       0.528918192339
 69       0.000030499628
 70       0.000020536739
 71      -0.000001007286
 72       0.000002996663
 73       0.000013440410
 74      -0.000013733490
 75      -0.000002972441
 76      -0.033676830229
 77      -0.000020562667
 78       0.000000441720
 79      -0.024310178295
 80       0.000004454938
 81      -0.226751066762
 82       0.581752577504
 83       0.000034862371
 84      -0.000016899610
 85       0.000006059349
 86       0.000009556871
 87       0.000018857516
 88      -0.000011677361
 89       0.026538282096
 90       0.000010412314
 91       0.000016415431
 92       0.000023115704
 93       0.000004472987
 94      -0.042842065861
 95      -0.000016860323
 96      -0.000026264354
 97      -0.000002885969
 98      -0.000029244353
 99       0.069343607339
100      -0.000016546266
101      -0.000026060961
102       0.000002923192
103       0.000028989029
104      -0.069372288350
105       0.000010662671
106       0.000016602239
107      -0.000024036000
108      -0.000005870311
109       0.042848020017
110       0.000006244852
111       0.000009716997
112      -0.000019100749
113       0.000012382841
114      -0.026537962068
 Sym=     1a
 Ene= 2.27244336034210E+00
 Spin= Alpha
 Occup= 0.000000
  1      -0.000000084262
  2       0.000000042167
  3       0.000002758179
  4       0.000001838666
  5       0.000001193123
  6      -0.003240527660
  7       0.000002238901
  8       0.000002479862
  9      -0.003652301721
 10       0.000002160542
 11      -0.172505091559
 12       0.102294783057
 13      -0.000000819165
 14       0.000001479592
 15       0.000000116649
 16      -0.000000465455
 17      -0.000003200491
 18      -0.000001179650
 19       0.000001081667
 20      -0.015975480802
 21      -0.000001326815
 22       0.000001580498
 23      -0.018004870183
 24       0.000006425698
 25      -0.478777310316
 26       0.152288417198
 27       0.000000260910
 28       0.000004786004
 29       0.000000155489
 30      -0.000000740088
 31       0.000000171080
 32       0.000000390240
 33       0.000000613886
 34       0.019216779492
 35       0.000000941123
 36      -0.000000991177
 37       0.021667020335
 38       0.000008361448
 39       0.067424166269
 40       0.589096848092
 41       0.000005741558
 42       0.000004123170
 43       0.000000067623
 44      -0.000000311782
 45      -0.000002787929
 46      -0.000000271250
 47       0.000000906431
 48       0.019210571454
 49      -0.000002284655
 50       0.000000658384
 51       0.021666389396
 52      -0.000007173965
 53      -0.067311441926
 54      -0.589080988082
 55      -0.000005187971
 56      -0.000000466149
 57       0.000000189538
 58      -0.000000821155
 59      -0.000000482886
 60      -0.000000142795
 61      -0.000000001257
 62      -0.015987532733
 63       0.000002463427
 64       0.000001084793
 65      -0.018008021511
 66      -0.000004245964
 67       0.478839668192
 68      -0.152212922130
 69       0.000001846573
 70      -0.000002787974
 71      -0.000000102795
 72       0.000000133670
 73       0.000002129488
 74      -0.000001718213
 75      -0.000000808152
 76      -0.003258767091
 77      -0.000004358437
 78       0.000001367797
 79      -0.003667025102
 80      -0.000003700185
 81       0.172545713783
 82      -0.102282606675
 83      -0.000000198601
 84      -0.000002011094
 85       0.000001324975
 86       0.000001648279
 87       0.000001489201
 88       0.000001333427
 89      -0.056939408498
 90      -0.000000623519
 91      -0.000000776489
 92      -0.000002016700
 93       0.000003171614
 94      -0.280235765958
 95       0.000000473278
 96       0.000000086749
 97       0.000002626097
 98      -0.000001635764
 99       0.337214381564
100      -0.000000368209
101      -0.000000335707
102       0.000000963126
103      -0.000001784537
104       0.337206179034
105       0.000000051725
106      -0.000000442471
107      -0.000002045255
108       0.000001157013
109      -0.280237075445
110       0.000001172984
111       0.000001571121
112      -0.000001384516
113      -0.000001137243
114      -0.056946397562
 Sym=     1a
 Ene= 2.27244459281161E+00
 Spin= Alpha
 Occup= 0.000000
  1      -0.000000012085
  2       0.000000069283
  3       0.000002318002
  4       0.000001075494
  5       0.000000295269
  6      -0.020322513196
  7       0.000002464607
  8      -0.000003273591
  9      -0.022901098003
 10       0.000000595113
 11      -0.528349785849
 12      -0.331779162304
 13      -0.000003538885
 14       0.000000765263
 15      -0.000000128604
 16       0.000000474492
 17       0.000003120492
 18       0.000001576066
 19      -0.000000824680
 20       0.012972099379
 21       0.000001076510
 22      -0.000002367247
 23       0.014621959940
 24      -0.000006954237
 25       0.273812899929
 26      -0.319481015425
 27      -0.000000153647
 28      -0.000002646275
 29       0.000000117752
 30      -0.000000232292
 31      -0.000001958768
 32       0.000000126133
 33      -0.000001495268
 34       0.007349387773
 35       0.000005251078
 36      -0.000003194821
 37       0.008287582220
 38       0.000005359258
 39      -0.163025809728
 40       0.226632238976
 41       0.000000826237
 42       0.000002055792
 43       0.000000078243
 44      -0.000000033762
 45      -0.000002695471
 46       0.000000136631
 47       0.000002254455
 48       0.007342907777
 49      -0.000001108475
 50       0.000002894910
 51       0.008279192293
 52      -0.000003801639
 53       0.163086563299
 54      -0.226626085775
 55      -0.000001586556
 56      -0.000002899516
 57      -0.000000195596
 58       0.000000808012
 59       0.000001482901
 60      -0.000000163330
 61       0.000000052014
 62       0.012968809181
 63       0.000000659166
 64       0.000005134348
 65       0.014615721313
 66       0.000004801793
 67      -0.273765151007
 68       0.319519178086
 69       0.000002204898
 70       0.000003424105
 71      -0.000000131157
 72       0.000000657826
 73      -0.000001202387
 74       0.000000472892
 75       0.000000957790
 76      -0.020333060278
 77      -0.000002184321
 78       0.000003100530
 79      -0.022904008202
 80      -0.000001816667
 81       0.528361660637
 82       0.331788384735
 83       0.000007420094
 84      -0.000002226047
 85       0.000000460214
 86       0.000000330867
 87      -0.000000653011
 88       0.000002545155
 89      -0.356475205735
 90       0.000000757225
 91       0.000000927456
 92       0.000002575424
 93      -0.000001779057
 94       0.227575693537
 95      -0.000000941445
 96      -0.000001411955
 97      -0.000000347822
 98      -0.000002249253
 99       0.128921955501
100      -0.000001349543
101      -0.000001632834
102       0.000000823788
103       0.000001147201
104       0.128929626176
105       0.000000095899
106       0.000000578813
107       0.000000401074
108      -0.000002807225
109       0.227566398851
110      -0.000000535639
111      -0.000000176179
112      -0.000001395811
113       0.000003711922
114      -0.356477349749
 Sym=     1a
 Ene= 2.47043076614257E+00
 Spin= Alpha
 Occup= 0.000000
  1      -0.000000209906
  2       0.000001172122
  3       0.000002339661
  4      -0.000000251818
  5      -0.000000990501
  6       0.044874559035
  7       0.000000524273
  8      -0.000001075552
  9      -0.045056930644
 10      -0.000001307179
 11       0.421155486465
 12       0.238971524879
 13       0.000004499151
 14      -0.000001474572
 15      -0.000000047045
 16       0.000000248931
 17       0.000001503841
 18       0.000000196532
 19       0.000000155011
 20      -0.044872257089
 21       0.000000245957
 22      -0.000000362194
 23       0.045054873328
 24       0.000006710409
 25      -0.417571038578
 26       0.245187573508
 27      -0.000000331750
 28       0.000004479812
 29      -0.000000405993
 30       0.000002631951
 31       0.000000321524
 32       0.000000143339
 33      -0.000002624503
 34      -0.044868281961
 35       0.000001764534
 36      -0.000002314625
 37       0.045054069179
 38      -0.000007772546
 39      -0.003591931750
 40      -0.484235471558
 41      -0.000006399163
 42      -0.000001977716
 43      -0.000000168073
 44       0.000001064755
 45       0.000001131847
 46       0.000000440383
 47       0.000000251605
 48       0.044868068117
 49       0.000001068654
 50       0.000001006389
 51      -0.045053134474
 52      -0.000006728453
 53      -0.003607441406
 54      -0.484233484131
 55      -0.000004376859
 56      -0.000002506835
 57      -0.000000534666
 58       0.000003471308
 59       0.000000180416
 60       0.000003592435
 61      -0.000002456095
 62       0.044876284114
 63       0.000001848508
 64      -0.000001233093
 65      -0.045058001745
 66       0.000004436583
 67      -0.417564815755
 68       0.245210568702
 69       0.000001758269
 70       0.000001050364
 71      -0.000000465187
 72       0.000002853846
 73       0.000001896288
 74       0.000002364987
 75       0.000001422984
 76      -0.044876651859
 77       0.000002156053
 78      -0.000001034407
 79       0.045058889214
 80      -0.000002584247
 81       0.421147978858
 82       0.238997474884
 83       0.000004960248
 84       0.000000571705
 85      -0.000001086172
 86      -0.000000724198
 87      -0.000000063382
 88      -0.000002411387
 89       0.261665975156
 90       0.000000076688
 91      -0.000000100534
 92      -0.000001101275
 93       0.000001814531
 94      -0.261668407297
 95      -0.000003260316
 96      -0.000002014296
 97      -0.000001574991
 98      -0.000002254292
 99      -0.261680665237
100      -0.000000997744
101      -0.000000724517
102       0.000001038568
103      -0.000000779008
104       0.261679227427
105      -0.000004336889
106      -0.000002630401
107       0.000006086921
108      -0.000004760270
109       0.261671348666
110      -0.000003234788
111      -0.000001960420
112       0.000002206745
113       0.000004201113
114      -0.261669306838
 Sym=     1a
 Ene= 2.51313619679218E+00
 Spin= Alpha
 Occup= 0.000000
  1       0.036232340475
  2      -0.109797737898
  3      -1.121606228756
  4      -0.144117455917
  5       0.304666258299
  6       0.000002914804
  7      -0.604273961575
  8       0.330856178238
  9       0.000005382718
 10       0.245236591535
 11       0.000002917740
 12      -0.000003403154
 13      -0.018710075922
 14       0.138877319797
 15       0.061711034281
 16      -0.186989867079
 17      -1.910273336952
 18      -0.106309857020
 19      -0.265102617743
 20      -0.000001497806
 21      -0.781415938543
 22      -0.112203627260
 23       0.000002878047
 24       0.417707731702
 25       0.000002006926
 26      -0.000004406827
 27       0.026947919496
 28      -0.198842008803
 29      -0.097920217587
 30       0.296650776881
 31       3.031766476735
 32       0.053117013818
 33      -0.067885980369
 34      -0.000000980645
 35       0.100753561292
 36       0.978731774552
 37       0.000006827562
 38      -0.662874845948
 39      -0.000007438712
 40       0.000006778563
 41       0.296673653988
 42       0.009514861608
 43      -0.097920349067
 44       0.296652589632
 45       3.031664367710
 46      -0.053141107686
 47       0.067893671640
 48       0.000000798172
 49      -0.100804112705
 50      -0.978670453340
 51      -0.000007008399
 52      -0.662875250638
 53      -0.000006468092
 54       0.000006351523
 55       0.296668561738
 56       0.009545598362
 57       0.061707800321
 58      -0.186970095231
 59      -1.910360407370
 60       0.106300453211
 61       0.265100329436
 62       0.000001243700
 63       0.781447548606
 64       0.112169912886
 65      -0.000002872840
 66       0.417703229029
 67       0.000001147789
 68      -0.000004789498
 69       0.026977976014
 70      -0.198832094731
 71       0.036226516465
 72      -0.109767140693
 73      -1.121474503415
 74       0.144118543923
 75      -0.304660868550
 76      -0.000002897860
 77       0.604212647384
 78      -0.330870883044
 79      -0.000005543276
 80       0.245219607231
 81       0.000004039255
 82      -0.000004122926
 83      -0.018677932961
 84       0.138867031074
 85       0.065931780537
 86       0.047326714687
 87       0.183155599580
 88      -0.071735051241
 89      -0.000001568094
 90       0.112258884765
 91       0.080588308433
 92       0.246931804070
 93       0.003900960003
 94      -0.000001177811
 95      -0.178017003634
 96      -0.127776993670
 97      -0.026872757587
 98      -0.334453260142
 99      -0.000002848557
100      -0.178029817188
101      -0.127788893580
102       0.026862692450
103       0.334462266374
104       0.000002584639
105       0.112251295730
106       0.080586462552
107      -0.246935546775
108      -0.003913463151
109       0.000000796650
110       0.065925550719
111       0.047333815000
112      -0.183146469161
113       0.071754607404
114       0.000001519708
 Sym=     1a
 Ene= 2.51316796259479E+00
 Spin= Alpha
 Occup= 0.000000
  1       0.092180609162
  2      -0.279339598310
  3      -2.853214829057
  4       0.120442307014
  5      -0.083585635124
  6      -0.000001271020
  7      -0.687871068703
  8      -0.655202748650
  9      -0.000001501142
 10       0.623912734945
 11       0.000005637517
 12      -0.000009026562
 13       0.172580561412
 14       0.221937569287
 15      -0.077463277523
 16       0.234729386014
 17       2.397786545805
 18      -0.159957819809
 19      -0.167059713043
 20      -0.000000464116
 21       0.469264502803
 22      -0.730527849509
 23      -0.000007671358
 24      -0.524314046171
 25      -0.000002021889
 26       0.000008218957
 27      -0.165337287371
 28       0.176300968085
 29      -0.014708068009
 30       0.044553459624
 31       0.455273929360
 32      -0.357176207512
 33      -0.007456210515
 34       0.000001627414
 35      -0.621501984523
 36       0.151695219359
 37       0.000004122542
 38      -0.099569188485
 39      -0.000003111186
 40       0.000001503662
 41       0.043177050772
 42      -0.093455039729
 43      -0.014712907695
 44       0.044584184184
 45       0.455484217967
 46       0.357179694018
 47       0.007463113612
 48      -0.000001686214
 49       0.621515689345
 50      -0.151796763530
 51      -0.000004242042
 52      -0.099582592456
 53      -0.000000887007
 54       0.000001179888
 55       0.043169567825
 56      -0.093471417830
 57      -0.077462311883
 58       0.234719933196
 59       2.397934784156
 60       0.159958037382
 61       0.167056548054
 62       0.000000673174
 63      -0.469348759388
 64       0.730543621125
 65       0.000007466309
 66      -0.524315711011
 67      -0.000002504398
 68       0.000005501272
 69      -0.165329331184
 70       0.176311921940
 71       0.092181414889
 72      -0.279342230400
 73      -2.853379847451
 74      -0.120429772257
 75       0.083578691630
 76       0.000001415267
 77       0.687978342228
 78       0.655202691090
 79       0.000001181854
 80       0.623916233615
 81       0.000007309471
 82      -0.000011054859
 83       0.172571302119
 84       0.221949932866
 85       0.167608017464
 86       0.120302834582
 87       0.244329471365
 88       0.207682469827
 89       0.000000242750
 90      -0.140814534572
 91      -0.101063304920
 92      -0.176449424020
 93       0.222205847886
 94       0.000002399716
 95      -0.026725867083
 96      -0.019188854210
 97       0.161935265242
 98      -0.051440216356
 99      -0.000001210158
100      -0.026723030039
101      -0.019173484254
102      -0.161929647969
103       0.051453598087
104       0.000001363969
105      -0.140805156820
106      -0.101054797393
107       0.176447705345
108      -0.222206924082
109      -0.000001934794
110       0.167594031708
111       0.120287518249
112      -0.244324034693
113      -0.207679988308
114       0.000000178669
 Sym=     1a
 Ene= 2.55666761906299E+00
 Spin= Alpha
 Occup= 0.000000
  1       0.000000233277
  2      -0.000000677745
  3      -0.000008660945
  4       0.000000426107
  5       0.000000134449
  6      -0.000014767539
  7      -0.000002005036
  8      -0.000001118525
  9      -0.000003741043
 10      -0.000006761374
 11       0.270074861692
 12      -0.475994626679
 13      -0.000001886440
 14      -0.000003962767
 15      -0.000000143868
 16       0.000000545710
 17       0.000003366292
 18      -0.000000378902
 19      -0.000000503045
 20       0.000017875438
 21      -0.000000204468
 22      -0.000001932844
 23       0.000003828836
 24      -0.000004606307
 25      -0.277076937105
 26      -0.471938869900
 27      -0.000005101374
 28      -0.000000011891
 29      -0.000000092117
 30       0.000000148214
 31       0.000005327531
 32      -0.000000711756
 33      -0.000000359457
 34      -0.000004064897
 35      -0.000001693478
 36       0.000001500242
 37      -0.000006469059
 38      -0.000005416023
 39       0.547217451188
 40      -0.004054672330
 41       0.000002778564
 42      -0.000003987625
 43      -0.000000116054
 44       0.000000292960
 45       0.000005686326
 46       0.000000635799
 47       0.000000366821
 48      -0.000006851254
 49       0.000001562149
 50      -0.000001479137
 51       0.000001012190
 52       0.000003876623
 53      -0.547218240789
 54       0.004087388206
 55      -0.000002547149
 56       0.000003827158
 57      -0.000000117228
 58       0.000000384562
 59       0.000002994539
 60       0.000000419178
 61       0.000000583703
 62       0.000015419736
 63       0.000000273583
 64       0.000002124438
 65       0.000008037103
 66       0.000002885348
 67       0.277093185127
 68       0.471934439385
 69       0.000004832023
 70       0.000000673834
 71       0.000000235904
 72      -0.000000693130
 73      -0.000008714068
 74      -0.000000322765
 75      -0.000000315933
 76      -0.000011036117
 77       0.000002401579
 78       0.000000430445
 79      -0.000005923737
 80       0.000010021798
 81      -0.270087354240
 82       0.475993859433
 83       0.000002549216
 84       0.000004665867
 85       0.000000731757
 86       0.000000546302
 87       0.000000842295
 88       0.000000684718
 89      -0.000013008627
 90      -0.000000342796
 91      -0.000000253033
 92      -0.000000197629
 93       0.000000603695
 94       0.000031461930
 95      -0.000000398246
 96      -0.000000298787
 97       0.000001054418
 98      -0.000000610250
 99       0.000013995502
100      -0.000000486632
101      -0.000000345964
102      -0.000000125102
103       0.000000684799
104      -0.000016165879
105      -0.000000244279
106      -0.000000198094
107      -0.000000351927
108      -0.000001363469
109       0.000022672535
110       0.000000739647
111       0.000000549888
112      -0.000001329001
113       0.000000157565
114      -0.000013692620
 Sym=     1a
 Ene= 2.62915630520076E+00
 Spin= Alpha
 Occup= 0.000000
  1       0.026052340285
  2      -0.178019366889
  3      -0.058526679984
  4       0.228881935336
  5       0.002643429445
  6      -0.000001365487
  7       0.227421976718
  8      -0.032234195095
  9      -0.000001172237
 10       0.081572534616
 11      -0.000001880892
 12      -0.000000398569
 13      -0.015227496526
 14      -0.207074844442
 15       0.074358362516
 16      -0.508040421218
 17      -0.168060735080
 18       0.483062242971
 19      -0.307014265796
 20      -0.000004524385
 21       0.434553933099
 22      -0.284681127747
 23      -0.000004423333
 24       0.232900137631
 25       0.000007525857
 26      -0.000003749898
 27      -0.272900383523
 28       0.454301162641
 29      -0.048343268459
 30       0.330293811759
 31       0.109238560647
 32       0.087777504965
 33      -0.372582105475
 34      -0.000003459677
 35       0.112394376170
 36      -0.338182945052
 37      -0.000003749352
 38      -0.151410490153
 39       0.000001235981
 40       0.000007162878
 41      -0.343205726022
 42       0.081219177600
 43       0.048254167050
 44      -0.329746917976
 45      -0.108846058520
 46       0.087798524433
 47      -0.372080155052
 48      -0.000003514457
 49       0.112302875059
 50      -0.337862687298
 51      -0.000002962461
 52       0.151137537361
 53      -0.000001181879
 54      -0.000003151464
 55       0.342722352699
 56      -0.081188452161
 57      -0.074447236161
 58       0.508589401060
 59       0.168472426999
 60       0.483528756797
 61      -0.307297798218
 62      -0.000003805240
 63       0.434926057315
 64      -0.284766228324
 65      -0.000003072129
 66      -0.233177702442
 67      -0.000002798508
 68       0.000000977327
 69       0.273165816118
 70      -0.454746086883
 71      -0.026140411435
 72       0.178557866077
 73       0.058886599510
 74       0.229309732435
 75       0.002875657465
 76      -0.000001204497
 77       0.227639229191
 78      -0.031978415553
 79      -0.000001903273
 80      -0.081840473770
 81      -0.000001334667
 82      -0.000001544494
 83       0.015444853100
 84       0.207497978459
 85       0.259154791276
 86       0.150916895136
 87       0.242378019033
 88       0.183104089346
 89      -0.000000692573
 90       0.739772602603
 91       0.430846359145
 92       0.744943173402
 93      -0.429260810372
 94      -0.000006359422
 95      -0.480977967768
 96      -0.280114427958
 97      -0.036672438254
 98      -0.558725152183
 99      -0.000003617784
100       0.480278672330
101       0.279738543989
102      -0.036630077097
103      -0.557881861977
104      -0.000004843025
105      -0.740512741926
106      -0.431256418288
107       0.745701091592
108      -0.429724117157
109      -0.000006449026
110      -0.259839680894
111      -0.151281251146
112       0.243100781028
113       0.183504107453
114       0.000000697213
 Sym=     1a
 Ene= 2.62915796401827E+00
 Spin= Alpha
 Occup= 0.000000
  1       0.070829822584
  2      -0.483909792192
  3      -0.160208309358
  4       0.453737611376
  5       0.304336320693
  6      -0.000000206498
  7       0.404258817945
  8       0.288897022409
  9      -0.000000064231
 10       0.221854603428
 11       0.000001126969
 12       0.000001748457
 13      -0.288182411055
 14      -0.415536664071
 15       0.012809116515
 16      -0.087548088207
 17      -0.028585337746
 18       0.143816440468
 19       0.050272515018
 20      -0.000000313675
 21       0.151835250390
 22       0.081766459251
 23      -0.000000168549
 24       0.040093294673
 25       0.000001271357
 26      -0.000001307355
 27       0.040867891367
 28       0.127331734509
 29       0.057985803778
 30      -0.396218213470
 31      -0.130773764965
 32       0.078756914681
 33       0.445571666587
 34       0.000003499989
 35       0.098520395694
 36       0.404068411835
 37       0.000002961157
 38       0.181598323484
 39       0.000000052303
 40      -0.000007170465
 41       0.414013925305
 42       0.057276160137
 43      -0.058029677324
 44       0.396490925239
 45       0.130917379678
 46       0.078723802029
 47       0.445819999991
 48       0.000003043915
 49       0.098778260656
 50       0.404240199184
 51       0.000002815235
 52      -0.181726283990
 53      -0.000000118479
 54       0.000006880629
 55      -0.414261445636
 56      -0.057273663064
 57      -0.012855039962
 58       0.087827858061
 59       0.028779666358
 60       0.144044287028
 61       0.050158568881
 62      -0.000000194621
 63       0.151827798856
 64       0.081431065826
 65       0.000000078429
 66      -0.040234329712
 67      -0.000000563328
 68       0.000000803470
 69      -0.040778451660
 70      -0.127564535294
 71      -0.070878265007
 72       0.484205750869
 73       0.160475703278
 74       0.453977905607
 75       0.304509754853
 76      -0.000000735360
 77       0.404547892125
 78       0.288756452843
 79      -0.000000626685
 80      -0.222011075331
 81      -0.000002523909
 82      -0.000002564837
 83       0.288335939954
 84       0.415762894510
 85       0.704626151247
 86       0.410379790390
 87       0.719413209172
 88       0.391483367269
 89      -0.000000772335
 90       0.127463216287
 91       0.074218817194
 92       0.106636386611
 93      -0.110922447400
 94      -0.000001304241
 95       0.576964891425
 96       0.336016228553
 97      -0.022038945665
 98       0.670693397747
 99       0.000005792240
100      -0.577312215439
101      -0.336201094402
102      -0.022099184435
103       0.671113254047
104       0.000004957698
105      -0.127821089682
106      -0.074409662707
107       0.107026876992
108      -0.111109356355
109      -0.000001285088
110      -0.705024715498
111      -0.410601863851
112       0.719803539288
113       0.391765063476
114      -0.000001390937
 Sym=     1a
 Ene= 2.63154248914336E+00
 Spin= Alpha
 Occup= 0.000000
  1      -0.064935589033
  2       0.398444033740
  3       0.284780239611
  4      -0.326089794547
  5      -0.184896199438
  6       0.000000200758
  7      -0.212860438969
  8      -0.120760479919
  9       0.000000658861
 10      -0.200414641037
 11      -0.000002385727
 12      -0.000001307146
 13       0.184703708297
 14       0.309521104002
 15      -0.064949779761
 16       0.398525994760
 17       0.284977544341
 18      -0.323354062436
 19       0.189813714946
 20       0.000003211570
 21      -0.211136212286
 22       0.123740396590
 23       0.000001603064
 24      -0.200476159293
 25      -0.000003596612
 26       0.000002028150
 27       0.175545979162
 28      -0.314878052788
 29      -0.064907947084
 30       0.398180532757
 31       0.285262971211
 32      -0.002935295256
 33      -0.374366748224
 34      -0.000003038910
 35      -0.001841234198
 36      -0.244009322773
 37      -0.000002614492
 38      -0.200373498757
 39       0.000000266490
 40       0.000008813194
 41      -0.359914308119
 42       0.005165919835
 43      -0.064928424022
 44       0.398323928724
 45       0.285335521803
 46       0.002666460334
 47       0.374572195670
 48       0.000002716008
 49       0.001613355738
 50       0.244196207037
 51       0.000002335710
 52      -0.200445132601
 53      -0.000000033114
 54       0.000007400378
 55      -0.360084188550
 56       0.005484494932
 57      -0.064856005675
 58       0.397864233490
 59       0.284704953133
 60       0.322550230821
 61      -0.189426054209
 62      -0.000002500768
 63       0.210415416071
 64      -0.123393466336
 65      -0.000000926635
 66      -0.200164286210
 67      -0.000001153213
 68       0.000000623762
 69       0.175244075092
 70      -0.314150517291
 71      -0.064860226069
 72       0.397918028107
 73       0.284555260755
 74       0.325396481722
 75       0.184720865752
 76      -0.000000594156
 77       0.212243188563
 78       0.120587243982
 79      -0.000001054829
 80      -0.200163107806
 81      -0.000003467191
 82      -0.000002285755
 83       0.184597109659
 84       0.308876936907
 85      -0.519854701568
 86      -0.281080026454
 87      -0.543450490881
 88      -0.308386169546
 89      -0.000000337397
 90      -0.519965973382
 91      -0.281135881555
 92      -0.538907569304
 93       0.316526987551
 94       0.000005818836
 95      -0.519290380794
 96      -0.280702765102
 97      -0.004666144512
 98      -0.624201353851
 99      -0.000004059644
100      -0.519538050770
101      -0.280856802485
102       0.004627817982
103       0.624487697309
104       0.000003901433
105      -0.518873355540
106      -0.280477247573
107       0.537818540134
108      -0.315886482082
109      -0.000005343394
110      -0.519000153356
111      -0.280563363120
112       0.542576226061
113       0.307924445038
114       0.000000009303
 Sym=     1a
 Ene= 2.76626001933730E+00
 Spin= Alpha
 Occup= 0.000000
  1       0.066956983504
  2      -0.375884626568
  3       0.063723350611
  4      -0.213253783348
  5       0.022036923407
  6       0.000001161471
  7      -0.072168697812
  8      -0.020525597564
  9       0.000000294174
 10       0.133458379466
 11       0.000003501501
 12      -0.000000053803
 13      -0.295864189107
 14       0.127974671572
 15       0.057089514931
 16      -0.320425427469
 17       0.053180567525
 18      -0.230937518332
 19      -0.099289856194
 20       0.000000352479
 21      -0.068585156416
 22       0.006800584621
 23       0.000000335107
 24       0.113859732717
 25       0.000001537075
 26       0.000003180443
 27      -0.471805897843
 28      -0.222389377424
 29       0.009908146908
 30      -0.055586561234
 31       0.008603188293
 32      -0.327161684298
 33      -0.023256859019
 34       0.000001456524
 35      -0.046731606206
 36      -0.010629245173
 37       0.000000166447
 38       0.019823666257
 39      -0.000006291166
 40       0.000003925856
 41      -0.006276497799
 42      -0.840017501764
 43      -0.009890322974
 44       0.055490994475
 45      -0.008769236189
 46      -0.327159001960
 47      -0.023320200622
 48       0.000001394698
 49      -0.046730846016
 50      -0.010629146217
 51       0.000000084387
 52      -0.019756745464
 53       0.000006139458
 54      -0.000003802640
 55       0.006275881924
 56       0.840018225224
 57      -0.057079391125
 58       0.320356715169
 59      -0.053167917378
 60      -0.231027806343
 61      -0.099271850912
 62       0.000000464272
 63      -0.068664088934
 64       0.006843355717
 65       0.000000148530
 66      -0.113832560670
 67      -0.000001275120
 68      -0.000002930675
 69       0.471733958222
 70       0.222488972734
 71      -0.066941592372
 72       0.375792599846
 73      -0.063783834098
 74      -0.213363575605
 75       0.022020168835
 76       0.000001204878
 77      -0.072253032180
 78      -0.020546919546
 79       0.000000451710
 80      -0.133405224618
 81      -0.000003978018
 82       0.000000262077
 83       0.295797174541
 84      -0.128074041232
 85       0.045516878636
 86      -0.074828635149
 87      -0.012892680533
 88       0.127323195200
 89       0.000000942719
 90       0.038769354337
 91      -0.063787109574
 92      -0.058601695507
 93      -0.186692825481
 94      -0.000001120755
 95       0.006845702342
 96      -0.010967047658
 97      -0.307700229903
 98       0.010079507622
 99       0.000001602871
100      -0.006741625159
101       0.011020622807
102      -0.307702060794
103       0.009943724366
104       0.000001564520
105      -0.038641704325
106       0.063847385922
107      -0.058710385874
108      -0.186610439730
109      -0.000000962960
110      -0.045363180116
111       0.074903629115
112      -0.013031532689
113       0.127226438160
114       0.000000921360
 Sym=     1a
 Ene= 2.76630156144832E+00
 Spin= Alpha
 Occup= 0.000000
  1      -0.027214220501
  2       0.152866757329
  3      -0.027603279914
  4      -0.089057919085
  5       0.300989720005
  6       0.000002642999
  7       0.003790119437
  8       0.052237497479
  9       0.000000258934
 10      -0.054117707398
 11       0.000005865585
 12       0.000003447416
 13      -0.665510412637
 14       0.417426823300
 15       0.044350641430
 16      -0.249079269437
 17       0.043700089192
 18       0.032286728025
 19       0.283258588349
 20       0.000001929083
 21      -0.022261261035
 22       0.056169974942
 23       0.000000503096
 24       0.088307018544
 25       0.000000435814
 26      -0.000007161579
 27       0.571116256955
 28       0.350510628176
 29      -0.071667367823
 30       0.402222304775
 31      -0.065556067318
 32      -0.043730162918
 33       0.186967141454
 34       0.000001511123
 35      -0.005820673042
 36       0.078823550862
 37       0.000000871776
 38      -0.143037184343
 39      -0.000001932144
 40       0.000002866677
 41      -0.046501928084
 42      -0.115223171134
 43       0.071676306581
 44      -0.402274681906
 45       0.065507352530
 46      -0.043711985951
 47       0.186916820791
 48       0.000001639599
 49      -0.005817010370
 50       0.078788413867
 51       0.000000713177
 52       0.143069385564
 53       0.000001700448
 54      -0.000002984180
 55       0.046556126436
 56       0.115225404278
 57      -0.044346039905
 58       0.249048237795
 59      -0.043697863990
 60       0.032261505047
 61       0.283280771491
 62       0.000001981571
 63      -0.022287607368
 64       0.056185477354
 65       0.000000321325
 66      -0.088295660115
 67      -0.000000610751
 68       0.000006649295
 69      -0.571124876516
 70      -0.350458021376
 71       0.027220942411
 72      -0.152903908287
 73       0.027549494113
 74      -0.089089401308
 75       0.300972236805
 76       0.000002701466
 77       0.003773416466
 78       0.052234380088
 79       0.000000337569
 80       0.054142682276
 81      -0.000006043113
 82      -0.000003162751
 83       0.665500888469
 84      -0.417429154409
 85      -0.018444709526
 86       0.030507799322
 87      -0.160173278576
 88       0.239981040308
 89       0.000002578498
 90       0.030274173119
 91      -0.049528031191
 92       0.153780779926
 93       0.194168888433
 94       0.000000669459
 95      -0.048866859013
 96       0.079892739359
 97      -0.042882512309
 98      -0.055171861688
 99      -0.000000354339
100       0.048944397403
101      -0.079854906868
102      -0.042889314526
103      -0.055258394619
104      -0.000000182393
105      -0.030223333620
106       0.049551006836
107       0.153728022821
108       0.194187333741
109       0.000000794567
110       0.018497102760
111      -0.030479937571
112      -0.160228167541
113       0.239945676174
114       0.000002599291
 Sym=     1a
 Ene= 2.79763969883250E+00
 Spin= Alpha
 Occup= 0.000000
  1      -0.100916534106
  2       0.341976646597
  3       4.927161198732
  4      -0.069139167556
  5      -0.039084638986
  6       0.000000176612
  7       1.508709606444
  8       0.856208738975
  9      -0.000001185689
 10      -0.556115593598
 11      -0.000005347977
 12       0.000007793765
 13      -0.053346604510
 14      -0.088815344160
 15       0.100909653371
 16      -0.341936971278
 17      -4.927148900837
 18       0.068608630676
 19      -0.040102791176
 20      -0.000000657722
 21      -1.495859963676
 22       0.878465213194
 23       0.000013465346
 24       0.556104363751
 25       0.000003639520
 26      -0.000007120975
 27       0.050744708420
 28      -0.090292934094
 29       0.100876329444
 30      -0.341759743215
 31      -4.927099358205
 32       0.000632720751
 33       0.079605927727
 34       0.000000898471
 35      -0.012875366712
 36      -1.734666274184
 37      -0.000013036718
 38       0.556031407084
 39       0.000005115474
 40      -0.000007033427
 41      -0.103526905856
 42       0.001591213437
 43      -0.100876934951
 44       0.341763978291
 45       4.927119922572
 46       0.000625874385
 47       0.079613899175
 48       0.000000640975
 49      -0.012860491814
 50      -1.734650816604
 51      -0.000013382597
 52      -0.556035116586
 53      -0.000005303996
 54       0.000006747473
 55       0.103519067766
 56      -0.001602519040
 57      -0.100907654195
 58       0.341929025384
 59       4.927122398946
 60       0.068580188477
 61      -0.040077612898
 62      -0.000000234861
 63      -1.495897407489
 64       0.878443020948
 65       0.000013299010
 66      -0.556089210596
 67      -0.000003016242
 68       0.000006487115
 69      -0.050777183265
 70       0.090319265249
 71       0.100916311277
 72      -0.341975559556
 73      -4.927151811002
 74      -0.069123655821
 75      -0.039070410849
 76       0.000000351347
 77       1.508758917566
 78       0.856179044107
 79      -0.000001715683
 80       0.556111095227
 81       0.000005905317
 82      -0.000007528926
 83       0.053378667245
 84       0.088819137962
 85      -0.204985163288
 86      -0.144700776669
 87      -0.333953551567
 88      -0.189416687645
 89       0.000000430585
 90       0.205008243891
 91       0.144714675481
 92       0.331146094468
 93      -0.194342147220
 94      -0.000003015459
 95       0.205033945663
 96       0.144755555960
 97       0.002873539586
 98       0.383987603926
 99       0.000003333074
100      -0.205045240835
101      -0.144766354380
102       0.002865889351
103       0.383997294946
104       0.000003064508
105      -0.204965763096
106      -0.144691909655
107       0.331110793808
108      -0.194312231331
109      -0.000002351257
110       0.204962211864
111       0.144683382445
112      -0.333938485408
113      -0.189399797411
114       0.000000830703
 Sym=     1a
 Ene= 3.01638416270620E+00
 Spin= Alpha
 Occup= 0.000000
  1      -0.020419889752
  2       0.127659859639
  3      -0.056321122029
  4      -0.204115088298
  5       0.060284704651
  6       0.000001529716
  7      -0.254484588014
  8      -0.093892374047
  9       0.000000532758
 10      -0.084601533385
 11      -0.000000515883
 12      -0.000001758211
 13       0.249317760624
 14       0.188589948989
 15      -0.035940001217
 16       0.224692686190
 17      -0.099267257276
 18      -0.288727590876
 19       0.021920022976
 20       0.000001565545
 21      -0.424946435757
 22       0.206794577661
 23       0.000003595380
 24      -0.148897162707
 25      -0.000005964208
 26       0.000001325531
 27       0.333811016828
 28      -0.397795361411
 29       0.056372263869
 30      -0.352427807227
 31       0.155473723633
 32       0.028712806649
 33       0.407692271931
 34       0.000003474046
 35       0.013070353813
 36       0.738764559476
 37       0.000005903397
 38       0.233549223780
 39      -0.000002052961
 40      -0.000009876307
 41       0.799418711573
 42      -0.031765261200
 43       0.056367247978
 44      -0.352404049935
 45       0.155564133084
 46      -0.028720753970
 47      -0.407696559894
 48      -0.000003089744
 49      -0.013085813680
 50      -0.738793254532
 51      -0.000005618632
 52       0.233531906840
 53      -0.000002283280
 54      -0.000009124913
 55       0.799423896433
 56      -0.031672738144
 57      -0.035945049500
 58       0.224713807203
 59      -0.099173828265
 60       0.288698201790
 61      -0.021928163426
 62      -0.000001061647
 63       0.424902999319
 64      -0.206799141943
 65      -0.000003122907
 66      -0.148913052680
 67      -0.000004856705
 68       0.000000885947
 69       0.333862197911
 70      -0.397756894778
 71      -0.020422610922
 72       0.127677311289
 73      -0.056398212640
 74       0.204085516313
 75      -0.060297987113
 76      -0.000001682071
 77       0.254489080159
 78       0.093914613633
 79      -0.000000884228
 80      -0.084599448472
 81      -0.000001115533
 82      -0.000001960154
 83       0.249323614011
 84       0.188589482876
 85      -0.272805043006
 86      -0.133569565570
 87      -0.150833036079
 88      -0.232882163383
 89      -0.000000738170
 90      -0.480152457117
 91      -0.235073464474
 92      -0.319523952631
 93       0.311319971018
 94       0.000003895047
 95       0.753046625576
 96       0.368678183559
 97      -0.016526642290
 98       0.679513139267
 99       0.000006404520
100       0.753037199380
101       0.368675594797
102       0.016558874455
103      -0.679502239622
104      -0.000005526033
105      -0.480149295731
106      -0.235067202064
107       0.319511611254
108      -0.311333776554
109      -0.000002755073
110      -0.272790538579
111      -0.133550695874
112       0.150808255520
113       0.232879958040
114       0.000000543939
 Sym=     1a
 Ene= 3.01638710595902E+00
 Spin= Alpha
 Occup= 0.000000
  1      -0.053282308905
  2       0.333107081550
  3      -0.147198679635
  4      -0.306379765560
  5      -0.241488519941
  6      -0.000000091751
  7      -0.599460508457
  8      -0.359153247098
  9       0.000000478033
 10      -0.220768432186
 11       0.000001121272
 12      -0.000003333980
 13       0.349403735001
 14       0.672187405087
 15       0.044325572979
 16      -0.277111952821
 17       0.122433742034
 18       0.224276114499
 19      -0.251650544443
 20      -0.000002973253
 21       0.486275521448
 22      -0.319612476697
 23      -0.000004787980
 24       0.183657927093
 25       0.000007128469
 26      -0.000003620867
 27      -0.237516556205
 28       0.587861133888
 29       0.008958230652
 30      -0.056010413071
 31       0.024812614851
 32      -0.161343517205
 33       0.066036691972
 34       0.000001346420
 35      -0.046208787542
 36       0.117834829983
 37       0.000001233757
 38       0.037114629044
 39       0.000000683061
 40      -0.000002318338
 41       0.128998511110
 42       0.122456875516
 43       0.008963083379
 44      -0.056030101586
 45       0.024669760112
 46       0.161338778431
 47      -0.066071489728
 48      -0.000001341014
 49       0.046218290629
 50      -0.117812916892
 51      -0.000001039901
 52       0.037141488391
 53       0.000000426879
 54      -0.000001921917
 55       0.129006577394
 56       0.122476873295
 57       0.044327742482
 58      -0.277113875146
 59       0.122269940078
 60      -0.224270067719
 61       0.251631509863
 62       0.000002295981
 63      -0.486236866090
 64       0.319552466535
 65       0.000004147734
 66       0.183670876699
 67       0.000005983933
 68      -0.000002774755
 69      -0.237472412102
 70       0.587858177773
 71      -0.053287842275
 72       0.333129024688
 73      -0.147039099238
 74       0.306369046964
 75       0.241482741724
 76      -0.000000361342
 77       0.599422749510
 78       0.359100689878
 79      -0.000000884282
 80      -0.220789775188
 81       0.000000193838
 82      -0.000003572057
 83       0.349368566744
 84       0.672189338418
 85      -0.711956101108
 86      -0.348566793283
 87      -0.582812656733
 88      -0.274390573716
 89       0.000001250644
 90       0.592269636979
 91       0.289972428543
 92       0.504455918282
 93      -0.196169686794
 94      -0.000003912684
 95       0.119705407949
 96       0.058601553299
 97       0.136416197757
 98       0.106975367309
 99       0.000000275476
100       0.119749607317
101       0.058631245524
102      -0.136415366970
103      -0.107030496242
104      -0.000000277690
105       0.592255932041
106       0.289968344418
107      -0.504450042658
108       0.196159171957
109       0.000002533979
110      -0.711956149765
111      -0.348566426385
112       0.582804579373
113       0.274413291637
114      -0.000002197191
 Sym=     1a
 Ene= 3.13994059431325E+00
 Spin= Alpha
 Occup= 0.000000
  1       0.000011818091
  2      -0.000087359978
  3       0.000248746834
  4       0.185608284635
  5      -0.326929737050
  6      -0.000003279511
  7      -0.587608332814
  8       1.035902849017
  9       0.000010473254
 10       0.000046270496
 11      -0.000005484150
 12      -0.000002574017
 13       0.591088741565
 14      -0.353309321073
 15      -0.000021918424
 16       0.000153386821
 17      -0.000339929275
 18      -0.190496135893
 19      -0.324123859663
 20      -0.000001512514
 21       0.602752925724
 22       1.027086251890
 23       0.000004818113
 24      -0.000085933893
 25       0.000000382014
 26       0.000006137024
 27      -0.601231367129
 28      -0.335725069688
 29      -0.000001333379
 30      -0.000001157287
 31       0.000115698713
 32       0.375998156933
 33      -0.002781363491
 34      -0.000001861855
 35      -1.190772474763
 36       0.008889734363
 37       0.000005788135
 38      -0.000004829050
 39       0.000005239500
 40      -0.000003412643
 41       0.010280248112
 42       0.688495652478
 43       0.000008270634
 44      -0.000057577797
 45       0.000124090257
 46      -0.375999829861
 47       0.002750504143
 48       0.000001841094
 49       1.190752308595
 50      -0.008947116197
 51      -0.000005970363
 52       0.000029287685
 53       0.000005164848
 54      -0.000003455602
 55       0.010309025030
 56       0.688493616528
 57      -0.000020762321
 58       0.000150616916
 59      -0.000387725097
 60       0.190508604557
 61       0.324127524630
 62       0.000001437669
 63      -0.602774803513
 64      -1.027166046663
 65      -0.000004505652
 66      -0.000079910135
 67       0.000000345680
 68       0.000005776663
 69      -0.601225686450
 70      -0.335744018825
 71       0.000014075386
 72      -0.000105851230
 73       0.000314126919
 74      -0.185635522757
 75       0.326919129207
 76       0.000003375318
 77       0.587586685273
 78      -1.035976460450
 79      -0.000010604258
 80       0.000052135439
 81      -0.000005715270
 82      -0.000002384665
 83       0.591075127584
 84      -0.353345990587
 85       0.000164856732
 86       0.000072085226
 87       0.146460154890
 88      -0.257805185002
 89      -0.000002589075
 90      -0.000303571085
 91      -0.000130604531
 92      -0.150361695847
 93      -0.255523997070
 94      -0.000001203539
 95       0.000012329105
 96       0.000003517856
 97       0.296430581137
 98      -0.002193931760
 99      -0.000001452741
100       0.000097716084
101       0.000043432412
102      -0.296425864226
103       0.002112469082
104       0.000001470874
105      -0.000314094865
106      -0.000132827275
107       0.150375678991
108       0.255530509774
109       0.000001115474
110       0.000218037151
111       0.000094057619
112      -0.146508440285
113       0.257790502141
114       0.000002659543
 Sym=     1a
 Ene= 3.53672326889083E+00
 Spin= Alpha
 Occup= 0.000000
  1      -0.002216627433
  2      -0.022901639034
  3       1.484382290952
  4       0.228838296597
  5       0.129900284022
  6      -0.000000300077
  7       0.982116610437
  8       0.557320669792
  9      -0.000000826677
 10       0.041963102983
 11      -0.000002410064
 12       0.000005632009
 13      -0.389588762229
 14      -0.652177578213
 15       0.002214426568
 16       0.022918586211
 17      -1.484352996013
 18      -0.226885353777
 19       0.133300276151
 20       0.000002055667
 21      -0.973747155896
 22       0.571829749057
 23       0.000008945291
 24      -0.041970347902
 25      -0.000007161271
 26       0.000001002077
 27       0.370083307916
 28      -0.663432577930
 29       0.002207179346
 30       0.022973508016
 31      -1.484317293577
 32      -0.001944645028
 33      -0.263166076068
 34      -0.000002287793
 35      -0.008380974764
 36      -1.129242087932
 37      -0.000008767101
 38      -0.041993614506
 39       0.000003357876
 40       0.000006685896
 41      -0.759589946335
 42       0.011294625291
 43      -0.002207478113
 44      -0.022971717506
 45       1.484310849918
 46      -0.001933476297
 47      -0.263163610920
 48      -0.000002121512
 49      -0.008381992210
 50      -1.129233773166
 51      -0.000008620093
 52       0.041991644381
 53      -0.000003522687
 54      -0.000006299231
 55       0.759587622628
 56      -0.011272556056
 57      -0.002213911104
 58      -0.022917348050
 59       1.484395539369
 60      -0.226881161561
 61       0.133303320022
 62       0.000001595621
 63      -0.973752836384
 64       0.571856049577
 65       0.000008271570
 66       0.041973758396
 67       0.000006307627
 68      -0.000000675121
 69      -0.370099037082
 70       0.663440720648
 71       0.002216469155
 72       0.022900370749
 73      -1.484411376257
 74       0.228836479269
 75       0.129910066206
 76      -0.000000600460
 77       0.982119703771
 78       0.557355024313
 79      -0.000001385057
 80      -0.041965811623
 81       0.000001928734
 82      -0.000005885260
 83       0.389596824910
 84       0.652186792424
 85       0.543762015476
 86       0.261729358923
 87       0.335035430514
 88       0.190122192125
 89      -0.000000571594
 90      -0.543771861456
 91      -0.261737486851
 92      -0.332169750124
 93       0.195097970219
 94       0.000003116381
 95      -0.543817468195
 96      -0.261763408164
 97      -0.002883699424
 98      -0.385243741435
 99      -0.000003756681
100       0.543812321999
101       0.261761590498
102      -0.002845728551
103      -0.385241273841
104      -0.000003102335
105       0.543780968109
106       0.261736338963
107      -0.332173679486
108       0.195102424497
109       0.000001815560
110      -0.543772145224
111      -0.261731732965
112       0.335030381834
113       0.190143573036
114      -0.000001238645
